@relation SpeciesRelation

@attribute bin_0 numeric
@attribute bin_1 numeric
@attribute bin_2 numeric
@attribute bin_3 numeric
@attribute bin_4 numeric
@attribute bin_5 numeric
@attribute bin_6 numeric
@attribute bin_7 numeric
@attribute bin_8 numeric
@attribute bin_9 numeric
@attribute species_class {'African Wildcat','Aria Chicken','Basking Shark','Black Rohu','Blacktip shark','Blue shark','Bull shark',Catla,Cheetah,'Common Carp','Domestic Cat',Fish,'Freshwater Shark','Grass Carp','Hammerhead Shark',Jaguar,'Lemon Shark',Leopard,Lion,'Long-whiskered Catfish','Lucifer Chicken','Mako Shark','Mirror Carp',Mrigal,'Nile Tilapia',Nurse,'Popcorn Chicken',Puma,'Puma Concolor',Rohu,'Sand Cat','Sand tiger Shark',Shark,'Silver Carp','Snow leopard','Striped Catfish','Thresher Shark',Tiger,Whale,'White Shark','Whitetip Shark'}

@data
0.56,0.29,0.02,0.02,0.01,0.02,0.01,0.04,0.02,0.01,'Whitetip Shark'
0.88,0.02,0.02,0.02,0.01,0.03,0.01,0,0.01,0,'Whitetip Shark'
0.83,0.03,0.02,0.03,0.04,0.02,0,0.02,0.01,0,'Whitetip Shark'
0.18,0.34,0.23,0.15,0.05,0.04,0,0.01,0,0,'Whitetip Shark'
0.83,0.08,0.01,0.03,0.01,0,0.02,0.02,0,0,'Whitetip Shark'
0.87,0.05,0.04,0.04,0,0,0,0,0,0,'Whitetip Shark'
0.84,0.06,0.01,0.01,0.01,0.03,0.03,0.01,0,0,'Whitetip Shark'
0.81,0.01,0.05,0.06,0.05,0.01,0,0.01,0,0,'Whitetip Shark'
0.86,0.04,0.02,0.02,0.02,0,0.01,0.02,0.01,0,'Whitetip Shark'
0.48,0.36,0.06,0.04,0.03,0.01,0.01,0.01,0,0,'Whitetip Shark'
0.78,0.04,0.02,0.04,0.06,0.03,0.02,0,0.01,0,'Whitetip Shark'
0.77,0.04,0.01,0,0.04,0.03,0.07,0.03,0.01,0,'Whitetip Shark'
0.69,0.1,0.01,0.01,0.01,0.05,0.04,0.03,0.05,0.01,'Whitetip Shark'
0.3,0.3,0.17,0.08,0.03,0.04,0.02,0.03,0.02,0.01,Whale
0.87,0.02,0.04,0,0.01,0.03,0,0.01,0.01,0.01,'Whitetip Shark'
0.7,0.07,0.07,0.06,0.05,0.03,0.01,0,0.01,0,'Whitetip Shark'
0.83,0.05,0.05,0.01,0.01,0.02,0.02,0,0,0.01,'Whitetip Shark'
0.62,0.14,0.07,0.07,0.03,0.04,0.02,0,0.01,0,'Whitetip Shark'
0.07,0.09,0.07,0.11,0.08,0.11,0.1,0.22,0.14,0.01,'Whitetip Shark'
0.65,0.16,0.03,0.04,0.02,0.05,0.01,0.03,0.01,0,'Whitetip Shark'
0.85,0.03,0.01,0,0.03,0.02,0.02,0.03,0.01,0,'Whitetip Shark'
0.83,0.11,0,0.01,0.01,0.02,0,0.01,0.01,0,'Whitetip Shark'
0.21,0.41,0.12,0.01,0.04,0.07,0.11,0.02,0.01,0,'Whitetip Shark'
0.86,0.06,0.02,0.01,0,0.01,0.02,0.01,0.01,0,'Whitetip Shark'
0.57,0.25,0.04,0.03,0.03,0.03,0.02,0.03,0,0,'Whitetip Shark'
0.86,0.04,0.01,0,0.01,0.01,0.03,0.03,0.01,0,'Whitetip Shark'
0.33,0.31,0.08,0.06,0.06,0.05,0.04,0.02,0.02,0.03,Whale
0.12,0.54,0.04,0.06,0.08,0.05,0.04,0.06,0.01,0,'Whitetip Shark'
0.75,0.13,0.06,0.01,0.01,0.01,0.02,0,0,0.01,Whale
0.7,0.08,0.09,0.03,0.06,0,0.03,0.01,0,0,'Whitetip Shark'
0.83,0.06,0.02,0,0,0.01,0,0.05,0.02,0.01,'Whitetip Shark'
0.48,0.25,0.12,0.07,0.03,0.02,0.01,0.01,0.01,0,'Whitetip Shark'
0.77,0.01,0.02,0.05,0.05,0.08,0.01,0.01,0,0,'Whitetip Shark'
0.6,0.17,0.07,0.05,0.04,0.05,0.02,0,0,0,'Whitetip Shark'
0.83,0.01,0.03,0.04,0.04,0.03,0.01,0,0.01,0,'Whitetip Shark'
0.77,0.11,0.06,0.03,0.03,0,0,0,0,0,'Whitetip Shark'
0.68,0.23,0.06,0.01,0,0,0,0.02,0,0,'Whitetip Shark'
0.59,0.29,0.06,0.02,0.01,0.01,0,0.01,0.01,0,'Whitetip Shark'
0.51,0.21,0.14,0.07,0.01,0.01,0.03,0.01,0.01,0,'Whitetip Shark'
0.82,0.04,0.04,0.02,0.02,0.05,0.01,0,0,0,'Whitetip Shark'
0.83,0.07,0.05,0.02,0.01,0.01,0,0,0,0.01,'Whitetip Shark'
0.72,0.14,0.02,0.04,0.05,0,0.01,0.02,0,0,'Whitetip Shark'
0.9,0.04,0,0.02,0.02,0,0,0.01,0.01,0,'Whitetip Shark'
0.85,0.04,0.01,0.02,0.01,0.02,0.02,0.01,0.01,0.01,'Whitetip Shark'
0.57,0.2,0.11,0.03,0.04,0.02,0.01,0.02,0,0,'Whitetip Shark'
0.63,0.27,0.04,0.03,0.01,0,0.01,0,0.01,0,Whale
0.76,0.13,0.01,0,0.03,0.02,0.01,0.01,0.02,0.01,'Whitetip Shark'
0.85,0.04,0.03,0.03,0.02,0.01,0,0.02,0,0,'Whitetip Shark'
0.78,0.08,0.02,0,0,0.01,0.01,0.02,0.05,0.03,'Whitetip Shark'
0.84,0.03,0.02,0,0.06,0.04,0,0.01,0,0,'Whitetip Shark'
0.53,0.22,0.1,0.1,0.02,0.01,0.02,0,0,0,'Whitetip Shark'
0.82,0.06,0.01,0.01,0.02,0.05,0.01,0.02,0,0,'Whitetip Shark'
0.81,0.09,0.02,0,0.01,0.03,0.01,0.02,0.01,0,'Whitetip Shark'
0.79,0.1,0.05,0,0.01,0.01,0.01,0.01,0,0.02,'Whitetip Shark'
0.87,0.05,0.04,0.01,0.02,0,0,0.01,0,0,'Whitetip Shark'
0.3,0.31,0.2,0.08,0.07,0.01,0.02,0,0,0.01,'Whitetip Shark'
0.77,0.09,0.06,0.03,0.01,0.03,0,0,0.01,0,'Whitetip Shark'
0.48,0.32,0.04,0.05,0.05,0.02,0.03,0.01,0,0,'Whitetip Shark'
0.76,0.11,0,0,0.02,0.02,0.04,0.03,0.02,0,'Whitetip Shark'
0.46,0.2,0.08,0.08,0.06,0.04,0.03,0.01,0.03,0.01,'Whitetip Shark'
0.84,0.07,0.06,0.02,0,0,0,0,0.01,0,'Whitetip Shark'
0.36,0.29,0.16,0.08,0.03,0.04,0.03,0.01,0,0,'Whitetip Shark'
0.8,0.08,0.04,0,0.03,0.01,0.01,0.01,0.02,0,Shark
0.43,0.15,0.14,0.15,0.09,0.02,0.01,0.01,0,0,Whale
0.22,0.27,0.18,0.13,0.06,0.06,0.07,0.01,0,0,'Whitetip Shark'
0.8,0.06,0,0.02,0.03,0.04,0,0.03,0.01,0.01,'Whitetip Shark'
0.62,0.14,0,0.01,0.03,0.04,0.05,0.06,0.04,0.01,'Whitetip Shark'
0.77,0.04,0.06,0.04,0.01,0.02,0.02,0.03,0.01,0,'Whitetip Shark'
0.71,0.08,0.01,0.08,0.05,0.03,0.02,0,0.02,0,'Whitetip Shark'
0.8,0.05,0,0.02,0.01,0.02,0.02,0.04,0.03,0.01,'Whitetip Shark'
0.91,0.03,0.01,0.02,0,0.01,0.01,0.01,0,0,'Whitetip Shark'
0.76,0.17,0.04,0,0.02,0,0,0,0.01,0,'White Shark'
0.73,0.12,0.05,0.03,0.04,0.02,0,0,0,0.01,'Whitetip Shark'
0.33,0.19,0.25,0.12,0.04,0.03,0,0.02,0.02,0,'Whitetip Shark'
0.87,0.11,0.01,0.01,0,0,0,0,0,0,'Whitetip Shark'
0.87,0.03,0.02,0,0.01,0.02,0.03,0.01,0.01,0,'Whitetip Shark'
0.8,0.03,0.06,0.04,0.03,0.02,0.01,0,0.01,0,'Whitetip Shark'
0.4,0.35,0.03,0.05,0.03,0.06,0.04,0.03,0.01,0,'Whitetip Shark'
0.51,0.3,0.05,0.06,0.02,0.02,0,0.02,0.01,0.01,'White Shark'
0.82,0.07,0.02,0.01,0.01,0.01,0.02,0.03,0.01,0,'Whitetip Shark'
0.35,0.39,0.04,0.09,0.08,0.04,0.01,0,0,0,'Whitetip Shark'
0.76,0.04,0.04,0.07,0.03,0.03,0.01,0.01,0.01,0,'Whitetip Shark'
0.56,0.25,0.02,0.03,0.02,0.02,0.04,0.01,0.03,0.02,'Whitetip Shark'
0.78,0.08,0.06,0.02,0.01,0,0.02,0.02,0.01,0,'Whitetip Shark'
0.86,0.05,0.03,0.04,0.01,0.01,0,0,0,0,'Whitetip Shark'
0.65,0.21,0.06,0.03,0.02,0.02,0,0,0.01,0,'White Shark'
0.77,0.07,0.04,0.05,0.01,0.03,0.02,0,0.01,0,'Whitetip Shark'
0.35,0.3,0.22,0.07,0.05,0.01,0,0,0,0,'Whitetip Shark'
0.88,0.04,0.05,0.01,0,0.01,0.01,0,0,0,'Whitetip Shark'
0.7,0.08,0.11,0.05,0.02,0.02,0.01,0.01,0,0,'Whitetip Shark'
0.81,0.06,0.04,0.03,0,0.02,0.02,0.01,0.01,0,'Whitetip Shark'
0.44,0.34,0.06,0.06,0.06,0.02,0.01,0,0.01,0,'Whitetip Shark'
0.89,0.02,0.02,0,0.01,0.02,0,0.02,0.01,0.01,'Whitetip Shark'
0.87,0.03,0,0.01,0,0.04,0.02,0.02,0.01,0,'Whitetip Shark'
0.07,0.11,0.11,0.12,0.15,0.11,0.1,0.1,0.1,0.03,'Whitetip Shark'
0.61,0.14,0.01,0.02,0.04,0.09,0.07,0.02,0,0,'Whitetip Shark'
0.86,0.01,0.03,0.02,0.02,0.04,0.01,0.01,0,0,'Whitetip Shark'
0.72,0.05,0.03,0.01,0.02,0.03,0.07,0.06,0,0.01,'Whitetip Shark'
0.28,0.17,0.39,0.07,0.04,0.01,0.02,0.02,0,0,'Whitetip Shark'
0.47,0.35,0.11,0.03,0.02,0.01,0.01,0,0,0,'Whitetip Shark'
0.45,0.34,0.03,0.03,0.08,0.02,0.02,0.01,0.02,0,'Whitetip Shark'
0.81,0.07,0.04,0.02,0.02,0.02,0.01,0.01,0,0,'Whitetip Shark'
0.82,0.05,0.01,0.02,0.02,0,0.03,0.04,0,0.01,'Whitetip Shark'
0.94,0.02,0,0.01,0.02,0,0,0,0.01,0,'Whitetip Shark'
0.63,0.28,0.05,0,0,0.01,0.02,0,0,0.01,'Whitetip Shark'
0.72,0.16,0,0.01,0.03,0,0.02,0.02,0.04,0,'Whitetip Shark'
0.3,0.2,0.34,0.03,0.05,0.05,0.01,0.01,0.01,0,Whale
0.89,0.06,0.01,0.01,0,0.01,0.01,0.01,0,0,'Whitetip Shark'
0.42,0.34,0.05,0.04,0.08,0.03,0.04,0,0,0,'Whitetip Shark'
0.53,0.16,0.08,0.1,0.06,0.02,0.02,0.01,0.02,0,'White Shark'
0.05,0.09,0.17,0.14,0.22,0.13,0,0.06,0.06,0.08,'Whitetip Shark'
0.32,0.41,0.11,0.05,0.01,0.02,0.04,0.03,0,0.01,'Whitetip Shark'
0.82,0.06,0.05,0.03,0.03,0,0,0.01,0,0,'Whitetip Shark'
0.85,0.07,0.03,0.03,0,0,0.01,0,0.01,0,'Whitetip Shark'
0.43,0.19,0.21,0.08,0.03,0.04,0.01,0.01,0,0,Whale
0.55,0.19,0.09,0.06,0.05,0.01,0.01,0.02,0.02,0,'White Shark'
0.94,0.05,0.01,0,0,0,0,0,0,0,'Whitetip Shark'
0.42,0.25,0.09,0.04,0.08,0.07,0.03,0,0.02,0,'Whitetip Shark'
0.82,0.04,0.02,0.04,0.02,0.05,0.01,0,0,0,'Whitetip Shark'
0.9,0.02,0,0,0.02,0.02,0.02,0.01,0.01,0,'Whitetip Shark'
0.9,0.05,0.02,0.01,0,0.01,0,0,0.01,0,'White Shark'
0.54,0.3,0.07,0,0.03,0.02,0.02,0.01,0.01,0,'Whitetip Shark'
0.2,0.11,0.1,0.17,0.17,0.06,0.06,0.06,0.06,0.01,'Whitetip Shark'
0.37,0.11,0.12,0.13,0.07,0.08,0.06,0.05,0.01,0,'Whitetip Shark'
0.84,0.08,0.01,0.01,0.01,0.04,0,0,0.01,0,'Whitetip Shark'
0.88,0.05,0.03,0,0,0.01,0.01,0.01,0,0.01,'White Shark'
0.39,0.24,0.24,0.12,0.01,0,0,0,0,0,Tiger
0.78,0.17,0.03,0,0.01,0.01,0,0,0,0,'White Shark'
0.35,0.16,0.09,0.11,0.13,0.08,0.05,0.02,0,0.01,'White Shark'
0.15,0.22,0.23,0.19,0.1,0.04,0.02,0.03,0.02,0,Tiger
0.47,0.24,0.2,0.03,0.02,0.02,0.01,0.01,0,0,'White Shark'
0.25,0.51,0.03,0.03,0.03,0.04,0.04,0.04,0.03,0,'Sand tiger Shark'
0.91,0.03,0,0.02,0.02,0.01,0,0,0.01,0,'Whitetip Shark'
0.26,0.45,0.14,0.05,0.01,0.03,0.02,0.02,0.02,0,'Whitetip Shark'
0.46,0.28,0.04,0.02,0.04,0.04,0.04,0.05,0.03,0,'White Shark'
0.79,0.07,0.03,0.05,0.02,0.01,0.02,0.01,0,0,'Whitetip Shark'
0.16,0.16,0.14,0.13,0.1,0.07,0.09,0.05,0.06,0.04,'Whitetip Shark'
0.65,0.19,0.08,0.03,0.02,0.02,0.01,0,0,0,'White Shark'
0.18,0.42,0.27,0.03,0.05,0.02,0.01,0.01,0.01,0,'White Shark'
0.28,0.43,0.16,0.05,0.03,0.02,0,0.01,0.02,0,'Whitetip Shark'
0.69,0.04,0.03,0.06,0.14,0.01,0.02,0.01,0,0,'Whitetip Shark'
0.1,0.07,0.2,0.26,0.1,0.12,0.09,0.03,0.03,0,'Bull shark'
0.31,0.27,0.16,0.1,0.1,0.01,0.02,0.02,0.01,0,'Whitetip Shark'
0.88,0.06,0.03,0.01,0.01,0,0,0.01,0,0,'Whitetip Shark'
0.12,0.25,0.19,0.16,0.06,0.06,0.04,0.06,0.04,0.02,'White Shark'
0.86,0.05,0,0.02,0.01,0.01,0.03,0,0.01,0.01,'Whitetip Shark'
0.76,0.06,0.03,0.05,0.03,0.03,0.02,0.01,0,0.01,'Whitetip Shark'
0.37,0.33,0.19,0.08,0.01,0.01,0.01,0,0,0,'Whitetip Shark'
0.9,0.04,0.03,0.01,0.01,0,0,0.01,0,0,'White Shark'
0.58,0.25,0.1,0.01,0.02,0.01,0.01,0.01,0.01,0,Whale
0.88,0.07,0,0.01,0,0.03,0,0,0.01,0,'White Shark'
0.41,0.33,0.06,0.05,0.08,0.05,0.02,0,0,0,'Whitetip Shark'
0.35,0.3,0.12,0.04,0.08,0.05,0.01,0.04,0,0.01,'Whitetip Shark'
0.33,0.23,0.11,0.13,0.06,0.01,0.08,0.05,0,0,'African Wildcat'
0.83,0.11,0.03,0.01,0,0,0,0.02,0,0,'African Wildcat'
0.67,0.2,0.04,0.03,0.03,0,0,0.03,0,0,'African Wildcat'
0.9,0.08,0,0,0.02,0,0,0,0,0,'African Wildcat'
0.72,0.15,0.08,0.01,0.02,0,0,0.01,0.01,0,'African Wildcat'
0.68,0.07,0.07,0.03,0.02,0.06,0.01,0.01,0.05,0,'African Wildcat'
0.6,0.21,0.09,0.05,0.02,0.01,0,0.02,0,0,'African Wildcat'
0.65,0.11,0.1,0.03,0.06,0.02,0.01,0.01,0.01,0,'African Wildcat'
0.72,0.17,0.06,0.01,0.02,0.01,0.01,0,0,0,'African Wildcat'
0.46,0.2,0.16,0.05,0.07,0,0.03,0.02,0.01,0,'African Wildcat'
0.6,0.2,0.07,0.05,0.02,0.02,0.02,0.02,0,0,'African Wildcat'
0.57,0.23,0.11,0.02,0.01,0.02,0.03,0.01,0,0,'African Wildcat'
0.15,0.11,0.13,0.49,0.03,0.02,0.03,0.02,0.02,0,'African Wildcat'
0.43,0.27,0.08,0.11,0.08,0.02,0,0.01,0,0,'African Wildcat'
0.71,0.19,0.03,0.01,0.01,0.01,0.03,0.01,0,0,'African Wildcat'
0.47,0.23,0.1,0.06,0.04,0.04,0.05,0,0.01,0,'African Wildcat'
0.75,0.17,0.08,0,0,0,0,0,0,0,'African Wildcat'
0.45,0.22,0.19,0.05,0.05,0.01,0.01,0,0.01,0.01,'African Wildcat'
0.54,0.25,0.12,0.05,0.03,0.01,0,0,0,0,'African Wildcat'
0.81,0.09,0.08,0.02,0,0,0,0,0,0,'African Wildcat'
0.9,0.05,0.01,0,0.01,0.01,0.02,0,0,0,'African Wildcat'
0.61,0.2,0.07,0.08,0.03,0,0.01,0,0,0,'African Wildcat'
0.57,0.23,0.07,0.02,0.02,0.03,0.03,0.01,0.02,0,'African Wildcat'
0.75,0.18,0.06,0,0.01,0,0,0,0,0,'African Wildcat'
0.87,0.09,0.02,0.01,0,0,0,0,0.01,0,'African Wildcat'
0.45,0.23,0.18,0.07,0.05,0.01,0,0.01,0,0,'African Wildcat'
0.29,0.25,0.13,0.06,0.19,0.03,0.03,0.02,0,0,'African Wildcat'
0.39,0.26,0.16,0.11,0.04,0.02,0.01,0.01,0,0,'African Wildcat'
0.56,0.26,0.09,0.01,0.04,0.02,0.01,0.01,0,0,'African Wildcat'
0.67,0.14,0.1,0.01,0.05,0,0.03,0,0,0,'African Wildcat'
0.53,0.33,0.09,0.04,0.01,0,0,0,0,0,'African Wildcat'
0.78,0.14,0.04,0.02,0.01,0,0.01,0,0,0,'African Wildcat'
0.6,0.17,0.13,0.04,0.03,0.01,0,0.01,0,0.01,'African Wildcat'
0.75,0.2,0.02,0.03,0,0,0,0,0,0,'African Wildcat'
0.7,0.16,0.04,0.01,0,0.01,0,0,0.02,0.06,'African Wildcat'
0.24,0.14,0.19,0.12,0.14,0.09,0.02,0.04,0.02,0,'African Wildcat'
0.79,0.13,0.05,0.01,0.02,0,0,0,0,0,'African Wildcat'
0.76,0.11,0.01,0.02,0.02,0.02,0.02,0.03,0.01,0,'African Wildcat'
0.65,0.24,0.05,0.04,0,0.01,0,0,0.01,0,'African Wildcat'
0.58,0.24,0.05,0.01,0.01,0.02,0.03,0.02,0.04,0,'African Wildcat'
0.51,0.19,0.06,0.08,0.07,0.02,0.03,0.02,0.02,0,'African Wildcat'
0.84,0.1,0.02,0.03,0.01,0,0,0,0,0,'African Wildcat'
0.77,0.11,0,0.01,0.04,0.02,0.02,0.01,0.02,0,'African Wildcat'
0.43,0.24,0.18,0.06,0,0.01,0,0,0.01,0.07,'African Wildcat'
0.42,0.36,0.08,0.07,0.04,0,0.02,0,0.01,0,'African Wildcat'
0.62,0.18,0.07,0.03,0.05,0.03,0.01,0.01,0,0,'African Wildcat'
0.31,0.3,0.2,0.09,0.03,0.03,0.03,0,0,0.01,'African Wildcat'
0.55,0.21,0.07,0.03,0.04,0.01,0.02,0.04,0.03,0,'African Wildcat'
0.64,0.13,0.1,0.03,0.06,0.01,0.01,0.02,0,0,'African Wildcat'
0.76,0.13,0.05,0.03,0.02,0.01,0,0,0,0,'African Wildcat'
0.75,0.15,0,0,0,0.02,0.02,0.01,0.05,0,'African Wildcat'
0.54,0.24,0.07,0.04,0.03,0,0,0,0.03,0.05,'African Wildcat'
0.55,0.17,0.08,0.07,0.08,0.03,0.01,0,0.01,0,'African Wildcat'
0.76,0.12,0.08,0.02,0.01,0.01,0,0,0,0,'African Wildcat'
0.66,0.1,0.12,0.05,0.04,0.01,0.02,0,0,0,'African Wildcat'
0.56,0.22,0.06,0.08,0.02,0.02,0.03,0.01,0,0,'African Wildcat'
0.6,0.14,0.12,0.04,0.04,0.04,0.01,0.01,0,0,'African Wildcat'
0.84,0.08,0.03,0.03,0,0.01,0,0.01,0,0,'African Wildcat'
0.54,0.26,0.11,0.03,0.02,0.01,0.02,0.01,0,0,'African Wildcat'
0.84,0.1,0.03,0.01,0,0,0,0.02,0,0,'African Wildcat'
0.84,0.06,0.05,0.04,0.01,0,0,0,0,0,'African Wildcat'
0.86,0.08,0.03,0,0.01,0.01,0,0.01,0,0,'African Wildcat'
0.89,0.05,0.03,0.02,0.01,0,0,0,0,0,'African Wildcat'
0.76,0.14,0.03,0.04,0,0.03,0,0,0,0,'African Wildcat'
0.72,0.1,0.03,0.02,0.02,0,0.03,0.03,0.02,0.03,'African Wildcat'
0.67,0.18,0.08,0.02,0.02,0,0.02,0.01,0,0,'African Wildcat'
0.28,0.17,0.09,0.1,0.08,0.04,0.02,0.05,0.17,0,'African Wildcat'
0.37,0.22,0.16,0.11,0.08,0.02,0.02,0.02,0,0,'African Wildcat'
0.92,0.04,0.01,0.01,0,0,0.01,0.01,0,0,'African Wildcat'
0.41,0.25,0.15,0.11,0.04,0.03,0,0.01,0,0,'African Wildcat'
0.39,0.17,0.14,0.13,0.06,0.03,0.04,0.03,0.01,0,'African Wildcat'
0.66,0.22,0.08,0.01,0.01,0.01,0,0.01,0,0,'African Wildcat'
0.78,0.12,0.04,0.02,0.02,0.01,0.01,0,0,0,'African Wildcat'
0.31,0.16,0.16,0.14,0.11,0.06,0.03,0.02,0.01,0,'African Wildcat'
0.91,0.04,0.03,0.02,0,0,0,0,0,0,'African Wildcat'
0.61,0.26,0.05,0.08,0,0,0,0,0,0,'African Wildcat'
0.2,0.22,0.17,0.1,0.05,0.06,0.07,0.06,0.06,0.01,'African Wildcat'
0.91,0.06,0,0,0.02,0,0.01,0,0,0,'African Wildcat'
0.47,0.22,0.15,0.07,0.02,0.03,0.03,0.01,0,0,'African Wildcat'
0.38,0.34,0.1,0.07,0.04,0.02,0.02,0.02,0,0.01,'African Wildcat'
0.6,0.21,0.11,0.04,0.02,0,0.01,0,0.01,0,'African Wildcat'
0.43,0.27,0.08,0.02,0.07,0.1,0.01,0.02,0,0,'African Wildcat'
0.56,0.17,0.09,0.09,0.06,0.01,0,0.01,0.01,0,'African Wildcat'
0.76,0.08,0.07,0.04,0.05,0,0,0,0,0,'African Wildcat'
0.69,0.2,0.06,0.03,0,0,0.01,0.01,0,0,'African Wildcat'
0.35,0.17,0.18,0.11,0.06,0.04,0.01,0,0.03,0.05,'African Wildcat'
0.39,0.26,0.12,0.11,0.06,0.04,0.01,0.01,0,0,'African Wildcat'
0.52,0.26,0.11,0.07,0.03,0,0,0,0.01,0,'African Wildcat'
0.61,0.18,0.05,0.03,0.04,0.01,0,0,0.03,0.05,'African Wildcat'
0.44,0.22,0.19,0.06,0.07,0.01,0,0.01,0,0,'African Wildcat'
0.54,0.24,0.13,0.06,0.02,0,0,0.01,0,0,'African Wildcat'
0.47,0.21,0.14,0.1,0.04,0.03,0.01,0,0,0,'African Wildcat'
0.53,0.17,0.12,0.09,0.06,0.02,0,0.01,0,0,'African Wildcat'
0.84,0.06,0.03,0.01,0.02,0.02,0,0.01,0,0.01,'African Wildcat'
0.58,0.19,0.12,0.04,0.02,0.01,0.02,0.01,0.01,0,'African Wildcat'
0.65,0.17,0.1,0.04,0.03,0.01,0,0,0,0,'African Wildcat'
0.43,0.29,0.08,0.11,0.04,0.03,0.02,0,0,0,'African Wildcat'
0.64,0.22,0.06,0.02,0.02,0.01,0,0.02,0.01,0,'African Wildcat'
0.76,0.11,0.09,0.02,0.01,0.01,0,0,0,0,'African Wildcat'
0.86,0.08,0.01,0.01,0,0,0,0.01,0.01,0.02,'African Wildcat'
0.62,0.17,0.1,0.06,0.04,0,0.01,0,0,0,'African Wildcat'
0.7,0.19,0.06,0.02,0.01,0,0.02,0,0,0,'African Wildcat'
0.55,0.21,0.1,0.03,0.02,0.02,0.04,0.03,0,0,'African Wildcat'
0.59,0.19,0.09,0.05,0.05,0,0.02,0.01,0,0,'African Wildcat'
0.37,0.25,0.1,0.1,0.05,0.05,0.04,0.03,0.01,0,'African Wildcat'
0.63,0.21,0.09,0.04,0,0.02,0,0.01,0,0,'African Wildcat'
0.6,0.22,0.13,0.04,0.01,0,0,0,0,0,'African Wildcat'
0.65,0.16,0.09,0.04,0.03,0.02,0.01,0,0,0,'African Wildcat'
0.25,0.15,0.39,0.02,0.06,0.07,0.04,0.02,0,0,'African Wildcat'
0.64,0.2,0.07,0,0.01,0,0,0,0.02,0.06,'African Wildcat'
0.68,0.16,0.08,0.05,0.02,0.01,0,0,0,0,'African Wildcat'
0.5,0.32,0.09,0.06,0,0.01,0.01,0.01,0,0,'African Wildcat'
0.44,0.28,0.14,0.04,0.02,0.05,0.01,0.01,0.01,0,'African Wildcat'
0.67,0.22,0.04,0.01,0.01,0.02,0.01,0.02,0,0,'African Wildcat'
0.58,0.26,0.09,0.03,0.04,0,0,0,0,0,'African Wildcat'
0.54,0.22,0.12,0.07,0.02,0.03,0,0,0,0,'African Wildcat'
0.33,0.31,0.21,0.11,0.02,0,0.02,0,0,0,'African Wildcat'
0.54,0.29,0.03,0.01,0.04,0.03,0.03,0.02,0.01,0,'African Wildcat'
0.82,0.09,0.04,0.01,0.01,0.01,0.02,0,0,0,'African Wildcat'
0.29,0.36,0.18,0.11,0.06,0,0,0,0,0,'African Wildcat'
0.41,0.18,0.12,0.17,0.03,0.03,0.04,0.01,0,0.01,'Aria Chicken'
0.37,0.2,0.09,0.11,0.15,0.06,0.01,0.01,0,0,'Aria Chicken'
0.54,0.17,0.14,0.07,0.04,0.02,0.01,0,0,0.01,'Aria Chicken'
0.41,0.21,0.14,0.11,0.05,0.05,0.01,0.01,0.01,0,'Aria Chicken'
0.45,0.22,0.09,0.08,0.06,0.05,0.03,0.01,0.01,0,'Aria Chicken'
0.45,0.34,0.14,0.05,0.02,0,0,0,0,0,'Aria Chicken'
0.31,0.36,0.17,0.1,0.02,0.02,0.01,0,0.01,0,'Aria Chicken'
0.22,0.23,0.22,0.11,0.1,0.04,0.03,0.03,0.01,0.01,'Aria Chicken'
0.22,0.32,0.16,0.11,0.05,0.06,0.04,0.03,0.01,0,'Aria Chicken'
0.28,0.45,0.13,0.05,0.02,0,0.03,0.02,0,0.02,'Aria Chicken'
0.46,0.35,0.07,0.05,0.04,0.02,0,0.01,0,0,'Aria Chicken'
0.7,0.17,0.04,0.02,0.02,0.01,0,0.03,0.01,0,'Aria Chicken'
0.37,0.17,0.07,0.11,0.18,0.07,0.02,0,0,0.01,'Aria Chicken'
0.54,0.2,0.14,0.03,0.02,0.02,0.01,0.02,0.01,0.01,'Aria Chicken'
0.49,0.24,0.11,0.05,0.03,0.03,0.01,0.02,0.01,0.01,'Aria Chicken'
0.62,0.18,0.09,0.07,0.01,0.01,0.01,0,0,0.01,'Aria Chicken'
0.62,0.23,0.05,0.05,0.02,0.02,0,0,0,0.01,'Aria Chicken'
0.52,0.35,0.07,0.02,0.02,0,0.01,0,0.01,0,'Aria Chicken'
0.56,0.28,0.11,0.01,0.01,0.02,0.01,0,0,0,'Aria Chicken'
0.59,0.18,0.17,0.03,0,0.02,0,0.01,0,0,'Aria Chicken'
0.5,0.27,0.08,0.06,0.03,0.01,0,0.02,0.02,0.01,'Aria Chicken'
0.51,0.13,0.08,0.08,0.07,0.06,0.03,0.04,0,0,'Aria Chicken'
0.54,0.18,0.07,0.06,0.07,0.02,0.01,0.04,0,0.01,'Aria Chicken'
0.45,0.18,0.13,0.17,0.02,0.01,0.01,0.02,0.01,0,'Aria Chicken'
0.43,0.19,0.1,0.11,0.07,0.05,0.02,0.01,0.02,0,'Aria Chicken'
0.5,0.23,0.14,0.09,0.03,0.01,0,0,0,0,'Aria Chicken'
0.45,0.25,0.15,0.06,0.02,0.04,0.01,0.01,0.01,0,'Aria Chicken'
0.45,0.2,0.17,0.12,0.01,0.01,0.01,0.01,0.01,0.01,'Aria Chicken'
0.44,0.29,0.11,0.1,0.01,0.03,0.02,0,0,0,'Aria Chicken'
0.43,0.28,0.17,0.06,0.03,0.03,0,0,0,0,'Aria Chicken'
0.39,0.23,0.23,0.05,0.01,0.06,0.02,0.01,0,0,'Aria Chicken'
0.77,0.13,0.07,0.02,0.01,0,0,0,0,0,'Aria Chicken'
0.65,0.25,0.05,0.03,0.01,0.01,0,0,0,0,'Aria Chicken'
0.71,0.18,0.07,0.02,0,0.01,0,0,0.01,0,'Aria Chicken'
0.38,0.16,0.06,0.13,0.19,0.06,0.01,0.01,0,0,'Aria Chicken'
0.61,0.23,0.1,0.01,0.02,0.03,0,0,0,0,'Aria Chicken'
0.57,0.1,0.11,0.08,0.06,0.05,0.01,0.01,0.01,0,'Aria Chicken'
0.64,0.1,0.12,0.06,0.02,0.03,0.02,0,0,0.01,'Aria Chicken'
0.61,0.1,0.1,0.08,0.06,0.02,0,0.02,0.01,0,'Aria Chicken'
0.59,0.19,0.13,0.03,0.01,0.02,0.02,0.01,0,0,'Aria Chicken'
0.68,0.15,0.1,0.01,0.01,0,0.02,0.01,0.01,0.01,'Aria Chicken'
0.77,0.08,0.04,0.04,0.03,0.01,0.01,0.02,0,0,'Aria Chicken'
0.62,0.12,0.06,0.07,0.06,0.03,0.01,0.01,0.02,0,'Aria Chicken'
0.68,0.12,0.09,0.06,0.02,0.01,0.01,0,0,0.01,'Aria Chicken'
0.48,0.24,0.12,0.06,0.06,0.01,0.01,0.01,0.01,0,'Aria Chicken'
0.27,0.21,0.14,0.15,0.09,0.06,0.05,0.02,0.01,0,'Aria Chicken'
0.51,0.29,0.13,0.03,0.03,0.01,0,0,0,0,'Aria Chicken'
0.59,0.18,0.12,0.04,0.05,0.01,0,0.01,0,0,'Aria Chicken'
0.63,0.18,0.1,0.05,0.01,0.02,0.01,0,0,0,'Aria Chicken'
0.63,0.19,0.09,0.03,0.04,0.01,0.01,0,0,0,'Aria Chicken'
0.56,0.19,0.11,0.07,0.05,0.01,0.01,0,0,0,'Aria Chicken'
0.52,0.19,0.14,0.06,0.04,0.02,0.01,0.01,0,0.01,'Aria Chicken'
0.51,0.21,0.17,0.04,0.02,0.01,0.03,0,0,0.01,'Aria Chicken'
0.45,0.24,0.17,0.06,0.05,0.02,0.01,0,0,0,'Aria Chicken'
0.5,0.26,0.1,0.06,0.04,0.01,0.02,0,0.01,0,'Aria Chicken'
0.47,0.27,0.15,0.07,0.03,0.01,0,0,0,0,'Aria Chicken'
0.43,0.22,0.14,0.1,0.06,0.03,0.01,0,0.01,0,'Aria Chicken'
0.46,0.21,0.13,0.09,0.09,0.02,0,0,0,0,'Aria Chicken'
0.49,0.19,0.11,0.09,0.04,0.04,0.03,0,0.01,0,'Aria Chicken'
0.52,0.25,0.08,0.05,0.04,0.02,0.02,0.01,0,0.01,'Aria Chicken'
0.63,0.23,0.06,0.03,0,0.02,0.02,0.01,0,0,'Aria Chicken'
0.47,0.2,0.14,0.08,0.04,0.03,0,0.02,0.01,0.01,'Aria Chicken'
0.39,0.14,0.14,0.2,0.08,0.02,0.01,0,0.01,0.01,'Aria Chicken'
0.46,0.28,0.11,0.06,0.03,0.03,0.01,0.01,0,0.01,'Aria Chicken'
0.61,0.24,0.06,0.04,0.03,0.01,0,0.01,0,0,'Aria Chicken'
0.45,0.36,0.09,0.08,0.01,0,0,0,0.01,0,'Aria Chicken'
0.64,0.14,0.08,0.04,0.05,0.03,0.01,0.01,0,0,'Aria Chicken'
0.72,0.11,0.07,0.04,0.02,0,0.03,0.01,0,0,'Aria Chicken'
0.64,0.12,0.04,0.09,0.04,0.02,0.02,0.02,0.01,0,'Aria Chicken'
0.73,0.1,0.07,0.05,0.03,0.02,0,0,0,0,'Aria Chicken'
0.59,0.2,0.09,0.06,0.03,0.03,0,0,0,0,'Aria Chicken'
0.38,0.26,0.15,0.1,0.03,0.03,0.02,0.01,0.01,0.01,'Aria Chicken'
0.58,0.19,0.07,0.04,0.06,0.06,0,0,0,0,'Aria Chicken'
0.39,0.18,0.16,0.11,0.1,0.04,0.01,0,0.01,0,'Aria Chicken'
0.48,0.23,0.12,0.07,0.03,0.04,0.02,0,0.01,0,'Aria Chicken'
0.62,0.18,0.07,0.05,0.03,0.02,0.02,0.01,0,0,'Aria Chicken'
0.74,0.17,0.06,0,0,0.02,0,0.01,0,0,'Aria Chicken'
0.77,0.07,0.1,0.02,0.03,0,0.01,0,0,0,'Aria Chicken'
0.73,0.07,0.09,0.04,0.03,0.02,0.01,0,0.01,0,'Aria Chicken'
0.72,0.08,0.06,0.04,0.05,0.03,0.01,0.01,0,0,'Aria Chicken'
0.79,0.08,0.05,0.04,0.02,0.01,0.01,0,0,0,'Aria Chicken'
0.73,0.11,0.07,0.04,0.03,0,0,0,0.01,0.01,'Aria Chicken'
0.7,0.09,0.06,0.07,0.05,0.02,0.01,0,0,0,'Aria Chicken'
0.59,0.22,0.06,0.05,0.05,0.02,0.01,0,0,0,'Aria Chicken'
0.38,0.14,0.12,0.08,0.06,0.07,0.04,0.05,0.05,0.01,'Aria Chicken'
0.4,0.31,0.12,0.08,0.04,0.03,0.01,0,0.01,0,'Aria Chicken'
0.57,0.18,0.14,0.05,0.01,0.01,0.02,0.01,0.01,0,'Aria Chicken'
0.63,0.16,0.07,0.08,0.04,0.02,0,0,0,0,'Aria Chicken'
0.59,0.2,0.12,0.05,0.03,0.01,0,0,0,0,'Aria Chicken'
0.56,0.24,0.06,0.08,0.03,0.03,0,0,0,0,'Aria Chicken'
0.6,0.18,0.1,0.06,0.04,0.02,0,0,0,0,'Aria Chicken'
0.56,0.18,0.1,0.09,0.04,0.02,0.01,0,0,0,'Aria Chicken'
0.63,0.2,0.08,0.05,0.03,0,0.01,0,0,0,'Aria Chicken'
0.57,0.22,0.12,0.03,0.02,0.02,0.01,0.01,0,0,'Aria Chicken'
0.5,0.16,0.09,0.1,0.04,0.02,0.05,0.03,0,0.01,'Aria Chicken'
0.55,0.25,0.15,0.01,0.02,0.01,0.01,0,0,0,'Aria Chicken'
0.48,0.16,0.17,0.08,0.07,0.03,0.01,0,0,0,'Aria Chicken'
0.67,0.25,0.02,0.03,0.01,0.01,0,0.01,0,0,'Aria Chicken'
0.72,0.19,0.03,0.05,0,0,0.01,0,0,0,'Aria Chicken'
0.72,0.09,0.03,0.04,0.03,0.04,0.04,0.01,0,0,'Aria Chicken'
0.72,0.09,0.04,0.07,0.04,0.02,0,0.02,0,0,'Aria Chicken'
0.74,0.09,0.09,0.07,0.01,0,0,0,0,0,'Aria Chicken'
0.77,0.09,0.08,0.04,0.02,0,0,0,0,0,'Aria Chicken'
0.78,0.08,0.06,0.06,0.02,0,0,0,0,0,'Aria Chicken'
0.57,0.19,0.14,0.08,0.01,0.01,0,0,0,0,'Aria Chicken'
0.45,0.21,0.1,0.14,0.03,0.03,0.03,0.01,0,0,'Aria Chicken'
0.48,0.13,0.18,0.13,0.05,0.02,0.01,0,0,0,'Aria Chicken'
0.32,0.28,0.1,0.11,0.08,0.03,0.02,0.02,0.02,0.02,'Aria Chicken'
0.52,0.2,0.13,0.03,0.05,0.02,0,0.01,0.03,0.01,'Aria Chicken'
0.67,0.21,0.06,0.04,0.02,0,0,0,0,0,'Aria Chicken'
0.86,0.09,0.02,0.01,0,0,0,0,0.02,0,'Aria Chicken'
0.9,0.07,0.02,0.01,0,0,0,0,0,0,'Aria Chicken'
0.52,0.27,0.08,0.06,0.03,0.01,0.02,0.01,0,0,'Aria Chicken'
0.56,0.15,0.14,0.08,0.03,0.02,0,0.01,0.01,0,'Aria Chicken'
0.54,0.14,0.14,0.08,0.05,0.02,0.01,0.02,0,0,'Aria Chicken'
0.52,0.2,0.15,0.06,0.02,0.02,0.02,0.01,0,0,'Aria Chicken'
0.44,0.11,0.1,0.07,0.09,0.11,0.05,0.02,0,0.01,'Aria Chicken'
0.51,0.15,0.14,0.11,0.06,0.01,0.01,0,0,0.01,'Aria Chicken'
0.53,0.25,0.12,0.03,0.01,0.01,0.01,0.03,0,0.01,'Aria Chicken'
0.63,0.18,0.07,0.02,0.02,0.04,0,0.01,0.02,0.01,'Aria Chicken'
0.62,0.09,0.12,0.08,0.04,0.04,0,0.01,0,0,'Aria Chicken'
0.71,0.08,0.15,0.03,0.01,0.02,0,0,0,0,'Aria Chicken'
0.53,0.2,0.18,0.05,0.03,0.01,0,0,0,0,'Aria Chicken'
0.52,0.18,0.18,0.11,0,0,0,0.01,0,0,'Aria Chicken'
0.46,0.22,0.29,0.01,0.01,0,0,0.01,0,0,'Aria Chicken'
0.22,0.33,0.16,0.11,0.12,0.05,0.01,0,0,0,'Aria Chicken'
0.21,0.35,0.15,0.13,0.09,0.06,0,0.01,0,0,'Aria Chicken'
0.55,0.22,0.13,0.07,0.01,0.01,0,0,0,0.01,'Aria Chicken'
0.48,0.18,0.12,0.1,0.07,0.04,0,0,0.01,0,'Aria Chicken'
0.38,0.16,0.1,0.12,0.09,0.04,0.04,0.02,0.03,0.02,'Aria Chicken'
0.54,0.02,0.09,0.06,0.13,0.07,0.05,0.03,0.01,0,'Aria Chicken'
0.7,0.16,0.02,0.03,0.04,0.05,0,0,0,0,'Aria Chicken'
0.6,0.21,0.06,0.04,0.03,0.01,0.02,0.02,0.01,0,'Aria Chicken'
0.3,0.38,0.17,0.06,0.03,0.03,0.01,0.01,0.01,0,'Aria Chicken'
0.37,0.3,0.12,0.06,0.04,0.03,0.04,0.03,0.01,0,'Aria Chicken'
0.33,0.19,0.08,0.09,0.08,0.08,0.04,0.04,0.05,0.02,'Aria Chicken'
0.41,0.33,0.15,0.04,0.04,0.01,0,0,0.01,0.01,'Aria Chicken'
0.43,0.34,0.12,0.06,0.01,0.02,0,0.01,0.01,0,'Aria Chicken'
0.44,0.29,0.14,0.08,0.01,0.01,0,0.02,0,0.01,'Aria Chicken'
0.41,0.13,0.11,0.15,0.15,0.03,0.01,0,0.01,0,'Aria Chicken'
0.47,0.3,0.11,0.07,0,0,0.02,0.02,0,0.01,'Aria Chicken'
0.53,0.07,0.04,0.05,0.07,0.1,0.05,0.04,0.04,0.01,'Aria Chicken'
0.57,0.19,0.16,0.06,0,0.01,0,0,0.01,0,'Aria Chicken'
0.62,0.19,0.1,0.06,0.01,0.01,0,0,0.01,0,'Aria Chicken'
0.52,0.22,0.15,0.08,0.01,0.01,0,0.01,0,0,'Aria Chicken'
0.58,0.2,0.13,0.05,0.03,0,0.01,0,0,0,'Aria Chicken'
0.7,0.16,0.05,0.06,0.01,0.01,0,0,0.01,0,'Aria Chicken'
0.65,0.17,0.09,0.05,0.02,0.01,0,0,0.01,0,'Aria Chicken'
0.52,0.19,0.18,0.04,0.02,0.02,0.01,0.01,0.01,0,'Aria Chicken'
0.56,0.2,0.11,0.07,0.03,0.01,0.01,0,0.01,0,'Aria Chicken'
0.39,0.29,0.13,0.04,0.05,0.02,0.03,0.02,0.02,0.01,'Black Rohu'
0.56,0.19,0.07,0.03,0.04,0.03,0.04,0.01,0.03,0,'Black Rohu'
0.53,0.28,0.02,0.02,0.06,0.02,0.04,0.02,0,0.01,'Black Rohu'
0.61,0.17,0.04,0.06,0.02,0.06,0.02,0.02,0,0,'Black Rohu'
0.75,0.06,0.06,0.03,0.04,0.04,0.02,0,0,0,'Black Rohu'
0.79,0.06,0.04,0,0.03,0.01,0.04,0.02,0.01,0,'Black Rohu'
0.75,0.04,0.07,0.04,0.03,0.02,0.02,0.02,0.01,0,'Black Rohu'
0.64,0.17,0.03,0.04,0.02,0.02,0.03,0.02,0.01,0.02,'Black Rohu'
0.22,0.2,0.14,0.21,0.06,0.04,0.02,0.06,0.02,0.03,'Black Rohu'
0.79,0.08,0.02,0.01,0.03,0.02,0.02,0.01,0.01,0.01,'Black Rohu'
0.6,0.2,0.02,0.05,0.02,0.01,0.04,0.02,0.03,0.01,'Black Rohu'
0.34,0.21,0.12,0.15,0.03,0.02,0.03,0.04,0.06,0,'Black Rohu'
0.81,0.04,0.01,0.02,0.03,0.05,0.03,0,0.01,0,'Black Rohu'
0.79,0.05,0.04,0.01,0.02,0.02,0.04,0.01,0.02,0,'Black Rohu'
0.78,0.06,0.04,0.01,0.04,0.01,0.04,0.01,0.01,0,'Black Rohu'
0.66,0.18,0.03,0.05,0.02,0.02,0,0.01,0.02,0.01,'Black Rohu'
0.8,0.06,0.03,0.01,0.02,0.01,0.02,0.02,0.03,0,'Black Rohu'
0.8,0.06,0.03,0.03,0.03,0,0.01,0.01,0.02,0.01,'Black Rohu'
0.44,0.37,0.04,0.03,0.05,0.02,0.01,0.01,0.02,0.01,'Black Rohu'
0.85,0.03,0.03,0,0.02,0.02,0.01,0.02,0.02,0,'Black Rohu'
0.75,0.1,0.02,0.03,0.02,0.04,0,0.01,0.02,0.01,'Black Rohu'
0.41,0.43,0.03,0.05,0.02,0.01,0.01,0.02,0.01,0.01,'Black Rohu'
0.8,0.06,0.02,0.02,0.04,0.03,0.02,0.01,0,0,'Black Rohu'
0.71,0.1,0.07,0.01,0.05,0.03,0.02,0,0.01,0,'Black Rohu'
0.36,0.35,0.14,0.08,0.03,0.01,0.01,0,0.01,0.01,'Black Rohu'
0.66,0.15,0.04,0.04,0.02,0.04,0.04,0.01,0,0,'Black Rohu'
0.76,0.04,0.02,0.05,0.07,0.02,0.03,0,0.01,0,'Black Rohu'
0.75,0.05,0.03,0.05,0.08,0.01,0,0.02,0.01,0,'Black Rohu'
0.81,0.04,0.04,0.03,0.01,0.03,0.03,0.01,0,0,'Black Rohu'
0.33,0.18,0.2,0.07,0.09,0.04,0.02,0.04,0.02,0.01,'Black Rohu'
0.81,0.03,0.06,0.05,0.02,0.01,0.01,0.01,0,0,'Black Rohu'
0.78,0.11,0.02,0.03,0.01,0.03,0,0,0.02,0,'Black Rohu'
0.79,0.06,0.06,0.03,0.01,0.01,0,0.03,0.01,0,'Black Rohu'
0.78,0.05,0.07,0.05,0.01,0.02,0.01,0,0.01,0,'Black Rohu'
0.58,0.22,0.06,0.05,0.03,0.04,0,0,0.01,0.01,'Black Rohu'
0.67,0.16,0.07,0.01,0.04,0.01,0.02,0.02,0,0,'Black Rohu'
0.81,0.03,0.06,0.03,0.02,0.01,0.01,0.01,0.01,0.01,'Black Rohu'
0.84,0.04,0.01,0.04,0,0.03,0,0.02,0.02,0,'Black Rohu'
0.79,0.05,0.02,0.03,0.02,0.02,0.02,0.03,0.01,0.01,'Black Rohu'
0.74,0.05,0.02,0.06,0.04,0.01,0.02,0.03,0.02,0.01,'Black Rohu'
0.71,0.1,0.03,0.02,0.02,0.02,0.06,0.03,0,0.01,'Black Rohu'
0.73,0.1,0.05,0.05,0.03,0.02,0.01,0.01,0,0,'Black Rohu'
0.85,0.07,0.03,0.02,0.01,0.01,0.01,0,0,0,'Black Rohu'
0.82,0.07,0.02,0.02,0.01,0.01,0.03,0.01,0.01,0,'Black Rohu'
0.75,0.12,0.04,0.01,0.02,0.03,0.02,0.01,0,0,'Black Rohu'
0.83,0.04,0.03,0,0.01,0,0.04,0.03,0.01,0.01,'Black Rohu'
0.76,0.06,0.04,0.04,0.02,0.05,0.01,0.01,0,0.01,'Black Rohu'
0.5,0.33,0.02,0,0.03,0.04,0.05,0.02,0.01,0,'Black Rohu'
0.84,0.07,0.02,0.01,0.01,0.02,0.01,0.02,0,0,'Black Rohu'
0.86,0.05,0.02,0.03,0.02,0,0.01,0.01,0,0,'Black Rohu'
0.7,0.16,0.01,0.01,0,0.04,0.01,0.03,0.04,0,'Black Rohu'
0.82,0.04,0.02,0,0.03,0.03,0.02,0.03,0.01,0,'Black Rohu'
0.68,0.11,0.04,0.03,0.05,0.02,0.02,0.04,0,0.01,'Black Rohu'
0.69,0.08,0.08,0.04,0.04,0.01,0.05,0,0.01,0,'Black Rohu'
0.81,0.07,0.02,0.01,0.03,0.03,0.02,0,0,0.01,'Black Rohu'
0.74,0.06,0.09,0.02,0.04,0.03,0.01,0.01,0,0,'Black Rohu'
0.83,0.01,0.05,0.04,0.03,0.01,0.01,0.01,0.01,0,'Black Rohu'
0.81,0.03,0.05,0.02,0.02,0.03,0.02,0.02,0,0,'Black Rohu'
0.81,0.07,0.02,0.02,0.01,0.01,0.01,0.02,0.01,0.02,'Black Rohu'
0.86,0.1,0.01,0.02,0,0,0,0.01,0,0,'Black Rohu'
0.82,0.05,0.05,0.02,0.01,0.03,0.01,0,0.01,0,'Black Rohu'
0.81,0.09,0,0.01,0.04,0.01,0.03,0.01,0,0,'Black Rohu'
0.83,0.01,0.05,0.04,0.03,0.01,0.01,0.01,0.01,0,'Black Rohu'
0.75,0.11,0.04,0.02,0.02,0.01,0.02,0.02,0.01,0,'Black Rohu'
0.71,0.09,0.08,0.03,0.05,0.02,0,0.02,0,0,'Black Rohu'
0.82,0.07,0.03,0.01,0.03,0.01,0.01,0.01,0,0.01,'Black Rohu'
0.64,0.14,0.05,0.06,0.05,0.01,0.03,0.01,0.01,0,'Black Rohu'
0.82,0.06,0.01,0.01,0.01,0.02,0.03,0.02,0.01,0.01,'Black Rohu'
0.79,0.06,0.05,0.02,0.01,0.01,0.02,0,0.02,0.02,'Black Rohu'
0.71,0.08,0.07,0.06,0.04,0.02,0,0.01,0.01,0,'Black Rohu'
0.76,0.09,0.06,0.02,0.03,0.01,0,0.03,0,0,'Black Rohu'
0.72,0.11,0.09,0.04,0.01,0.01,0,0.01,0,0.01,'Black Rohu'
0.49,0.28,0.09,0.04,0.02,0.03,0.02,0.01,0.01,0.01,'Black Rohu'
0.73,0.15,0.02,0.01,0.01,0.03,0.01,0.03,0.01,0,'Black Rohu'
0.78,0.02,0.07,0.05,0.01,0.01,0.05,0.01,0,0,'Black Rohu'
0.76,0.06,0.04,0.05,0.04,0.01,0.02,0.02,0,0,'Black Rohu'
0.83,0.04,0.03,0.02,0.01,0.01,0.03,0.02,0.01,0,'Black Rohu'
0.74,0.08,0.02,0.04,0.02,0.03,0.02,0.04,0,0.01,'Black Rohu'
0.87,0.02,0,0.04,0.03,0,0.01,0.01,0.02,0,'Black Rohu'
0.7,0.08,0.07,0.07,0.03,0.02,0.01,0.02,0,0,'Black Rohu'
0.8,0.05,0.04,0.04,0.02,0.04,0.01,0,0,0,'Black Rohu'
0.8,0.06,0.05,0.01,0.02,0.03,0.01,0.01,0.01,0,'Black Rohu'
0.82,0.05,0.06,0.01,0.02,0.01,0.01,0,0.01,0.01,'Black Rohu'
0.82,0.03,0.07,0.02,0.01,0.01,0.01,0.02,0,0.01,'Black Rohu'
0.79,0.08,0.04,0.02,0.03,0,0.02,0.02,0,0,'Black Rohu'
0.82,0.05,0.05,0.01,0,0.03,0.02,0.01,0.01,0,'Black Rohu'
0.84,0.03,0.04,0.01,0.03,0.02,0.01,0.01,0.01,0,'Black Rohu'
0.77,0.09,0.02,0.04,0,0.03,0.01,0.01,0.02,0.01,'Black Rohu'
0.82,0.07,0.02,0.02,0,0.02,0.03,0.02,0,0,'Black Rohu'
0.77,0.04,0.04,0.04,0.03,0.03,0.02,0.01,0.01,0.01,'Black Rohu'
0.78,0.05,0.02,0.01,0.03,0.02,0.02,0.04,0.03,0,'Black Rohu'
0.7,0.12,0.03,0.02,0.04,0.01,0.04,0.02,0.01,0.01,'Black Rohu'
0.53,0.27,0.04,0.03,0.04,0.03,0.03,0,0.01,0.02,'Black Rohu'
0.79,0.05,0.04,0.02,0.03,0.03,0.03,0.01,0,0,'Black Rohu'
0.78,0.07,0.03,0.03,0.03,0.02,0.02,0.01,0.01,0,'Black Rohu'
0.78,0.05,0.06,0.03,0.02,0.04,0.01,0.01,0,0,'Black Rohu'
0.78,0.05,0.03,0.05,0.01,0.04,0.02,0.01,0,0.01,'Black Rohu'
0.74,0.08,0.03,0.03,0.02,0.02,0.03,0.02,0.03,0,'Black Rohu'
0.81,0.06,0.01,0.03,0.05,0.02,0.01,0.01,0,0,'Black Rohu'
0.77,0.08,0.02,0.02,0.02,0.03,0.02,0.02,0.01,0.01,'Black Rohu'
0.72,0.1,0.06,0.04,0.01,0.03,0,0.02,0.01,0.01,'Black Rohu'
0.78,0.09,0.06,0.04,0.01,0.01,0,0.01,0,0,'Black Rohu'
0.77,0.13,0.04,0.03,0.02,0,0.01,0,0,0,'Black Rohu'
0.76,0.07,0.05,0.03,0.02,0.02,0.02,0.01,0.01,0.01,'Black Rohu'
0.65,0.16,0.04,0.04,0.03,0.03,0.03,0.01,0,0.01,'Black Rohu'
0.81,0.03,0.06,0.05,0.01,0,0.01,0.01,0.01,0.01,'Black Rohu'
0.72,0.15,0.03,0.02,0.04,0.02,0.01,0,0.01,0,'Black Rohu'
0.61,0.2,0.05,0.04,0.03,0.01,0.01,0.01,0.03,0.01,'Black Rohu'
0.8,0.11,0.03,0.01,0,0.01,0.02,0.01,0,0.01,'Black Rohu'
0.69,0.1,0.05,0.04,0,0.03,0.03,0.01,0.03,0.02,'Black Rohu'
0.75,0.1,0.07,0.02,0.01,0.02,0.02,0.01,0,0,'Black Rohu'
0.72,0.15,0.02,0.01,0.05,0.01,0.01,0.01,0.01,0.01,'Black Rohu'
0.73,0.1,0.03,0.04,0.04,0,0.03,0.01,0.01,0.01,'Black Rohu'
0.71,0.11,0.05,0.06,0.03,0.02,0,0.02,0,0,'Black Rohu'
0.67,0.17,0.04,0.02,0.07,0.01,0,0.01,0.01,0,'Black Rohu'
0.56,0.28,0.03,0.03,0.02,0.02,0.01,0.02,0.03,0,'Black Rohu'
0.71,0.14,0.06,0.02,0.02,0.03,0,0.01,0.01,0,'Black Rohu'
0.84,0.05,0.03,0.01,0.01,0.02,0.01,0.01,0.01,0.01,'Black Rohu'
0.79,0.06,0.04,0.01,0.04,0.03,0.01,0,0.02,0,'Black Rohu'
0.59,0.21,0.04,0.06,0.02,0.06,0.01,0.01,0,0,'Black Rohu'
0.85,0.04,0.04,0.03,0,0.01,0.01,0,0.02,0,Fish
0.82,0.04,0.02,0.05,0.02,0.02,0.02,0,0.01,0,Fish
0.81,0.13,0.01,0.02,0,0.01,0.01,0.01,0,0,Fish
0.52,0.25,0.07,0.03,0.04,0.01,0.04,0.02,0.02,0,Fish
0.56,0.25,0.06,0.03,0.03,0.02,0.03,0.02,0,0,Catla
0.74,0.09,0.08,0.03,0.02,0.03,0.01,0,0,0,Catla
0.84,0.07,0.02,0,0.01,0.02,0.01,0.01,0.01,0.01,Catla
0.79,0.06,0.05,0.04,0.02,0.02,0.01,0,0.01,0,Catla
0.69,0.16,0.02,0.02,0.01,0.01,0.05,0.02,0.02,0,Catla
0.82,0.06,0.02,0.01,0.03,0.02,0,0.01,0.01,0.02,Catla
0.6,0.22,0.02,0.03,0.03,0.04,0.03,0.02,0.01,0,Fish
0.39,0.43,0.03,0.07,0.02,0.03,0.01,0.01,0.01,0,Catla
0.8,0.07,0.01,0.05,0,0.02,0.03,0,0.02,0,Catla
0.78,0.07,0.05,0.03,0.04,0.02,0,0,0.01,0,Catla
0.62,0.28,0.06,0.03,0.01,0,0,0,0,0,Catla
0.66,0.1,0.05,0.06,0.04,0.05,0.03,0,0,0.01,Catla
0.84,0.05,0.04,0.01,0.01,0.01,0,0.02,0.01,0.01,Catla
0.8,0.07,0.04,0.03,0.04,0.01,0.01,0,0,0,Catla
0.77,0.08,0.02,0.04,0,0.02,0.02,0.03,0.01,0.01,Catla
0.75,0.11,0.04,0.04,0.01,0.03,0.01,0.01,0,0,Catla
0.82,0.07,0.04,0.02,0.03,0.01,0,0,0.01,0,Catla
0.85,0.06,0.04,0.02,0.01,0.01,0,0.01,0,0,Fish
0.74,0.12,0.03,0.01,0.04,0.01,0.01,0.02,0.02,0,Fish
0.78,0.1,0.04,0.02,0.03,0,0.02,0,0.01,0,Catla
0.81,0.07,0.02,0.01,0.01,0.03,0.01,0.01,0.01,0.02,Catla
0.86,0.06,0.02,0.01,0,0.01,0.01,0,0.02,0.01,Catla
0.87,0.01,0.04,0.03,0.02,0.02,0,0,0.01,0,Catla
0.8,0.07,0.05,0.02,0.02,0.02,0.01,0,0.01,0,Catla
0.54,0.17,0.1,0.08,0.01,0.03,0.04,0.03,0,0,Catla
0.84,0.04,0.04,0.03,0.03,0.01,0,0,0,0.01,Catla
0.71,0.13,0.04,0.05,0.02,0.01,0.03,0.01,0,0,Catla
0.74,0.1,0.05,0.06,0,0.02,0,0.01,0.02,0,Catla
0.5,0.29,0.07,0.05,0.02,0,0.02,0.04,0.01,0,Catla
0.7,0.18,0.03,0.03,0.03,0.02,0,0,0,0.01,Fish
0.48,0.19,0.11,0.08,0.03,0.05,0.02,0.04,0,0,Catla
0.35,0.42,0.07,0.02,0.05,0.05,0.02,0,0.02,0,Catla
0.57,0.24,0.02,0.02,0.01,0.04,0.04,0.02,0.03,0.01,Catla
0.65,0.12,0.08,0.06,0.01,0,0.01,0.02,0.04,0.01,Catla
0.81,0.06,0.04,0.01,0.03,0.02,0,0.01,0.02,0,Catla
0.65,0.24,0.04,0.02,0.02,0.01,0.01,0.01,0,0,Catla
0.42,0.22,0.18,0.13,0.01,0.03,0.01,0,0,0,Catla
0.26,0.24,0.26,0.12,0.04,0.05,0.01,0.01,0.01,0,Catla
0.42,0.18,0.09,0.08,0.12,0.09,0.01,0,0.01,0,Catla
0.67,0.19,0.02,0.02,0.01,0.01,0.02,0.03,0.02,0.01,Catla
0.84,0.05,0.02,0.05,0.01,0.01,0.01,0,0.01,0,Fish
0.72,0.14,0.04,0.02,0.02,0.03,0,0.01,0.01,0.01,Catla
0.73,0.13,0.03,0.02,0.03,0.02,0.02,0,0.01,0.01,Catla
0.63,0.18,0.06,0.06,0.03,0.03,0,0,0,0.01,Catla
0.44,0.22,0.13,0.1,0.05,0.02,0.02,0,0.02,0,Catla
0.79,0.12,0.06,0.01,0,0.01,0,0.01,0,0,Catla
0.46,0.39,0.05,0.02,0.03,0.01,0,0,0.01,0.03,Catla
0.67,0.18,0.05,0.02,0.01,0.03,0.02,0.01,0.01,0,Catla
0.58,0.24,0.06,0.04,0.04,0.01,0.02,0,0.01,0,Catla
0.78,0.09,0.03,0.03,0.05,0,0.01,0,0.01,0,Catla
0.79,0.07,0.06,0.04,0.02,0.01,0,0,0.01,0,Catla
0.67,0.15,0.08,0.03,0.02,0.01,0.01,0.01,0.01,0.01,Fish
0.46,0.22,0.11,0.08,0.07,0.02,0.01,0.03,0,0,Catla
0.8,0.08,0.03,0.03,0.03,0.01,0.01,0,0.01,0,Catla
0.72,0.11,0.02,0.03,0.02,0.01,0.03,0.03,0.02,0.01,Catla
0.46,0.36,0.02,0.07,0.03,0.01,0.02,0.02,0.01,0,Fish
0.54,0.28,0.07,0.03,0.03,0.02,0.01,0.01,0.01,0,Fish
0.32,0.22,0.2,0.11,0.02,0.04,0.03,0.04,0.01,0.01,Fish
0.73,0.08,0.05,0.06,0.05,0.02,0,0.01,0,0,Fish
0.79,0.1,0.04,0.03,0,0.02,0.01,0,0.01,0,Fish
0.81,0.11,0.02,0.01,0.02,0,0.01,0.01,0,0.01,Fish
0.77,0.06,0.07,0.04,0.04,0.01,0.01,0,0,0,Fish
0.77,0.09,0.02,0.04,0.04,0,0.01,0.02,0.01,0,Fish
0.74,0.09,0.05,0.07,0.03,0,0.01,0,0,0.01,Fish
0.55,0.25,0.08,0.07,0,0.02,0.01,0.01,0.01,0,Fish
0.62,0.21,0.07,0.03,0,0.02,0.01,0.02,0,0.02,Fish
0.3,0.36,0.19,0.05,0.02,0.04,0.01,0.01,0.02,0,Fish
0.78,0.14,0.03,0.02,0.01,0,0.02,0,0,0,Fish
0.83,0.07,0.08,0,0,0.01,0,0.01,0,0,Fish
0.82,0.09,0.02,0.05,0.02,0,0,0,0,0,Fish
0.89,0.08,0,0.01,0,0.01,0,0,0,0.01,Fish
0.62,0.22,0.07,0.04,0.02,0.02,0,0.01,0,0,Fish
0.81,0.06,0.02,0.04,0.03,0.02,0.01,0,0.01,0,Fish
0.47,0.27,0.07,0.05,0.04,0.03,0.05,0.01,0.01,0,Fish
0.79,0.09,0.03,0.02,0,0.01,0.01,0.02,0.02,0.01,Fish
0.81,0.05,0.04,0.02,0.03,0.02,0.01,0.01,0.01,0,Fish
0.48,0.27,0.11,0.03,0.05,0.02,0.02,0.01,0.01,0,Fish
0.79,0.05,0.05,0,0.02,0.03,0.02,0.01,0.02,0.01,Fish
0.54,0.28,0.07,0.03,0.03,0.02,0.01,0.01,0.01,0,Fish
0.89,0.04,0.03,0.01,0.01,0,0.01,0,0.01,0,Fish
0.87,0.02,0.06,0.03,0.01,0,0.01,0,0,0,Fish
0.74,0.09,0.06,0.04,0.02,0.01,0.01,0.01,0.01,0.01,Fish
0.61,0.26,0.02,0.04,0,0.02,0,0.03,0.01,0.01,Fish
0.8,0.09,0.02,0.02,0.03,0.01,0.02,0.01,0,0,Fish
0.42,0.34,0.09,0.04,0.07,0.02,0.01,0,0.01,0,Fish
0.74,0.11,0.04,0.03,0.03,0.01,0.02,0.01,0.01,0,Fish
0.8,0.08,0.08,0.01,0,0,0.01,0,0,0.02,Fish
0.84,0.1,0.04,0,0,0.01,0,0,0.01,0,Fish
0.82,0.09,0.04,0.01,0.01,0.01,0,0.01,0.01,0,Fish
0.74,0.13,0.01,0.03,0.03,0.04,0.01,0,0.01,0,Fish
0.82,0.1,0.03,0.02,0.01,0.01,0,0,0.01,0,Fish
0.26,0.21,0.2,0.17,0.02,0.02,0.03,0.03,0.02,0.04,Catla
0.71,0.11,0.03,0.04,0.01,0.02,0.01,0.05,0.01,0.01,Catla
0.54,0.18,0.14,0.04,0.03,0.04,0.03,0,0,0,Catla
0.77,0.07,0.06,0.03,0.03,0.02,0.01,0,0.01,0,Fish
0.44,0.35,0.04,0.08,0.04,0.01,0.02,0,0,0.02,Catla
0.34,0.21,0.21,0.07,0.1,0.05,0.02,0,0,0,Catla
0.86,0.07,0.04,0.02,0,0,0,0.01,0,0,Catla
0.32,0.29,0.21,0.04,0.04,0.06,0.02,0.01,0,0.01,Catla
0.46,0.17,0.09,0.11,0.08,0.04,0.03,0.02,0,0,Catla
0.82,0.04,0.02,0.05,0.03,0.01,0.02,0,0.01,0,Catla
0.79,0.1,0.06,0.02,0.01,0.01,0,0,0.01,0,Catla
0.73,0.07,0,0.05,0.02,0.04,0.02,0.02,0.01,0.04,Catla
0.78,0.1,0.05,0.02,0.01,0.03,0,0,0,0.01,Catla
0.74,0.12,0.05,0.03,0.02,0.01,0,0.02,0,0.01,Catla
0.87,0.04,0.03,0.02,0.03,0.01,0,0,0,0,Fish
0.75,0.07,0.08,0.03,0.02,0.01,0.03,0.01,0,0,Catla
0.69,0.16,0.07,0.03,0,0.01,0.03,0,0.01,0,Catla
0.77,0.11,0.04,0.04,0.01,0.01,0.01,0,0.01,0,Catla
0.61,0.19,0.03,0.06,0.07,0.02,0,0,0,0.02,Catla
0.85,0.02,0.05,0.04,0.01,0.01,0.01,0.01,0,0,Catla
0.79,0.12,0.05,0.02,0,0.01,0,0.01,0,0,Catla
0.8,0.1,0.06,0,0.02,0.01,0,0,0.01,0,Catla
0.55,0.29,0.08,0.04,0.01,0,0.02,0.01,0,0,Catla
0.42,0.37,0.05,0.03,0.01,0.05,0.05,0.02,0,0,Catla
0.73,0.11,0.05,0.04,0.02,0.02,0.01,0,0.01,0.01,Catla
0.37,0.16,0.15,0.08,0.1,0.07,0.05,0.02,0,0,Cheetah
0.52,0.19,0.14,0.05,0.05,0.03,0.01,0.01,0,0,Cheetah
0.57,0.2,0.12,0.05,0.03,0,0.02,0.01,0,0,Cheetah
0.48,0.22,0.09,0.11,0.06,0.03,0,0.01,0,0,Cheetah
0.43,0.29,0.11,0.11,0.01,0.02,0,0,0.02,0.01,Cheetah
0.65,0.22,0.09,0.03,0,0.01,0,0,0,0,Cheetah
0.86,0.04,0.06,0.01,0.01,0,0,0.01,0.01,0,Cheetah
0.82,0.12,0.03,0.02,0.01,0,0,0,0,0,Cheetah
0.69,0.2,0.04,0.02,0.05,0,0,0,0,0,Cheetah
0.23,0.35,0.16,0.13,0.03,0.04,0.05,0,0.01,0,Cheetah
0.3,0.19,0.18,0.08,0.1,0.09,0.05,0.01,0,0,Cheetah
0.64,0.21,0.04,0.03,0.04,0.04,0,0,0,0,Cheetah
0.39,0.32,0.16,0.07,0,0.03,0.02,0,0,0.01,Cheetah
0.83,0.1,0.03,0.01,0,0.02,0.01,0,0,0,Cheetah
0.44,0.24,0.11,0.08,0.05,0.04,0.02,0.02,0,0,Cheetah
0.41,0.37,0.12,0.06,0.04,0,0,0,0,0,Cheetah
0.23,0.16,0.18,0.33,0.05,0.01,0.04,0,0,0,Cheetah
0.8,0.04,0.03,0.03,0.04,0.03,0.02,0.01,0,0,Cheetah
0.34,0.34,0.16,0.04,0.1,0.01,0,0,0.01,0,Cheetah
0.09,0.1,0.08,0.15,0.18,0.18,0.15,0.07,0,0,Cheetah
0.29,0.31,0.14,0.1,0.06,0.03,0.07,0,0,0,Cheetah
0.89,0.06,0.04,0.01,0,0,0,0,0,0,Cheetah
0.23,0.27,0.11,0.13,0.08,0.1,0.07,0,0.01,0,Cheetah
0.47,0.19,0.16,0.08,0.06,0.03,0.01,0,0,0,Cheetah
0.72,0.19,0.05,0.01,0.02,0.01,0,0,0,0,Cheetah
0.25,0.43,0.16,0.11,0.04,0.01,0,0,0,0,Cheetah
0.83,0.11,0.01,0.02,0,0.03,0,0,0,0,Cheetah
0.89,0.02,0.05,0.03,0.01,0,0,0,0,0,Cheetah
0.52,0.23,0.05,0.05,0.07,0.05,0.01,0.01,0.01,0,Cheetah
0.56,0.26,0.11,0.03,0.02,0,0.01,0.01,0,0,Cheetah
0.51,0.22,0.04,0.06,0.02,0.14,0,0,0.01,0,Cheetah
0.66,0.21,0.08,0.02,0.01,0.01,0,0.01,0,0,Cheetah
0.25,0.32,0.15,0.06,0.09,0.03,0.01,0.04,0.03,0.02,Cheetah
0.52,0.32,0.08,0.05,0.01,0.01,0.01,0,0,0,Cheetah
0.25,0.32,0.15,0.06,0.09,0.03,0.01,0.04,0.03,0.02,Cheetah
0.48,0.22,0.09,0.11,0.06,0.03,0,0.01,0,0,Cheetah
0.19,0.23,0.29,0.12,0.08,0.04,0.04,0.01,0,0,Cheetah
0.45,0.24,0.12,0.08,0.06,0.03,0.01,0,0.01,0,Cheetah
0.32,0.26,0.2,0.07,0.04,0.04,0.01,0.05,0.01,0,Cheetah
0.69,0.2,0.07,0.02,0.02,0,0,0,0,0,Cheetah
0.34,0.33,0.13,0.11,0.04,0.02,0.02,0,0.01,0,Cheetah
0.63,0.07,0.1,0.17,0.01,0,0.01,0,0.01,0,Cheetah
0.9,0.07,0.03,0,0,0,0,0,0,0,Cheetah
0.3,0.34,0.16,0.06,0.08,0.02,0.02,0.01,0.01,0,Cheetah
0.75,0.16,0.02,0.02,0.02,0.01,0.02,0,0,0,Cheetah
0.66,0.24,0.06,0.03,0,0.01,0,0,0,0,Cheetah
0.47,0.32,0.08,0.11,0.01,0.01,0,0,0,0,Cheetah
0.38,0.4,0.13,0.04,0.03,0.01,0.01,0,0,0,Cheetah
0.52,0.27,0.12,0.06,0.03,0,0,0,0,0,Cheetah
0.64,0.14,0.11,0.06,0.04,0.01,0,0,0,0,Cheetah
0.25,0.26,0.18,0.13,0.13,0.04,0.01,0,0,0,Cheetah
0.82,0.09,0.01,0.02,0,0.04,0.01,0.01,0,0,Cheetah
0.87,0.07,0.01,0.03,0.01,0.01,0,0,0,0,Cheetah
0.69,0.2,0.04,0.02,0.05,0,0,0,0,0,Cheetah
0.51,0.23,0.1,0.06,0.08,0,0,0.02,0,0,Cheetah
0.81,0.08,0.06,0.02,0.02,0.01,0,0,0,0,Cheetah
0.3,0.25,0.16,0.1,0.09,0.08,0.01,0.01,0,0,Cheetah
0.28,0.36,0.2,0.11,0.04,0.01,0,0,0,0,Cheetah
0.89,0.04,0.02,0.02,0,0.02,0.01,0,0,0,Cheetah
0.8,0.14,0.02,0.02,0,0,0,0.01,0.01,0,Cheetah
0.27,0.13,0.1,0.14,0.12,0.11,0.07,0.04,0.01,0.01,Cheetah
0.56,0.17,0.11,0.06,0.04,0.03,0.01,0.01,0.01,0,Cheetah
0.91,0.05,0.01,0.01,0,0.01,0,0.01,0,0,Cheetah
0.33,0.42,0.13,0.03,0.04,0.02,0.02,0.01,0,0,Cheetah
0.8,0.07,0.05,0.02,0.03,0.01,0,0.01,0.01,0,Cheetah
0.44,0.3,0.15,0.04,0.05,0.01,0,0.01,0,0,Cheetah
0.9,0.07,0.01,0.01,0.01,0,0,0,0,0,Cheetah
0.72,0.15,0.04,0.03,0.03,0.02,0.01,0,0,0,Cheetah
0.41,0.27,0.21,0.1,0.01,0,0,0,0,0,Cheetah
0.38,0.3,0.11,0.12,0.08,0.01,0,0,0,0,Cheetah
0.72,0.25,0.01,0,0.01,0,0,0.01,0,0,Cheetah
0.16,0.37,0.22,0.16,0.05,0.03,0.01,0,0,0,Cheetah
0.42,0.16,0.09,0.16,0.04,0.01,0.03,0.04,0.04,0.01,Cheetah
0.83,0.06,0.02,0.01,0.02,0.02,0.01,0.02,0.01,0,Cheetah
0.21,0.22,0.17,0.18,0.09,0.1,0.02,0.01,0,0,Cheetah
0.56,0.28,0.07,0.03,0.02,0,0.02,0.01,0.01,0,Cheetah
0.62,0.26,0.08,0.03,0,0.01,0,0,0,0,Cheetah
0.89,0.05,0.03,0.01,0.02,0,0,0,0,0,Cheetah
0.38,0.2,0.17,0.19,0.06,0,0,0,0,0,Cheetah
0.12,0.3,0.34,0.19,0.02,0.01,0.01,0.01,0,0,Cheetah
0.29,0.22,0.17,0.13,0.08,0.07,0.04,0,0,0,Cheetah
0.52,0.27,0.1,0.03,0.03,0,0.03,0.02,0,0,Cheetah
0.71,0.17,0.08,0.02,0.01,0,0.01,0,0,0,Cheetah
0.31,0.4,0.16,0.05,0.01,0.02,0.01,0.03,0.01,0,Cheetah
0.58,0.2,0.04,0.02,0.03,0.04,0.04,0.02,0.03,0,Cheetah
0.4,0.27,0.16,0.11,0.05,0.01,0,0,0,0,Cheetah
0.53,0.28,0.11,0.06,0,0.01,0,0.01,0,0,Cheetah
0.71,0.15,0.07,0.04,0.01,0.02,0,0,0,0,Cheetah
0.35,0.25,0.13,0.12,0.09,0.05,0,0.01,0,0,Cheetah
0.29,0.24,0.4,0.01,0,0,0.03,0.02,0,0.01,Cheetah
0.44,0.31,0.11,0.06,0.04,0.02,0.01,0.01,0,0,Cheetah
0.55,0.21,0.06,0.11,0.01,0.03,0,0.01,0.01,0.01,Cheetah
0.59,0.29,0.06,0.02,0.01,0.02,0,0,0.01,0,Cheetah
0.71,0.18,0.07,0.01,0.01,0.01,0,0,0.01,0,Cheetah
0.45,0.26,0.13,0.1,0.01,0,0.01,0.01,0.02,0.01,Cheetah
0.8,0.1,0.05,0.02,0.01,0.01,0,0,0.01,0,'Common Carp'
0.79,0.1,0.01,0.02,0.01,0.01,0.03,0.01,0.02,0,'Common Carp'
0.76,0.12,0.04,0.02,0,0.01,0.03,0.01,0.01,0,'Common Carp'
0.85,0.1,0.01,0.02,0.01,0.01,0,0,0,0,'Common Carp'
0.69,0.17,0.05,0.01,0.01,0.03,0.02,0.01,0.01,0,'Common Carp'
0.78,0.07,0.05,0.03,0.02,0.02,0.01,0.01,0.01,0,'Common Carp'
0.79,0.11,0.05,0.02,0,0,0.02,0.01,0,0,'Common Carp'
0.62,0.13,0.04,0.04,0.04,0.07,0.01,0.01,0.03,0.01,'Common Carp'
0.79,0.09,0.02,0.02,0.04,0.03,0,0,0,0.01,'Common Carp'
0.81,0.1,0.03,0.02,0.01,0,0.01,0,0.01,0.01,'Common Carp'
0.88,0.06,0.03,0,0.01,0.01,0,0.01,0,0,'Common Carp'
0.56,0.3,0.05,0.04,0.03,0.01,0,0,0.01,0,'Common Carp'
0.76,0.14,0.03,0.04,0.01,0.02,0,0,0,0,'Common Carp'
0.48,0.24,0.11,0.07,0.04,0.01,0.02,0.02,0,0.01,'Common Carp'
0.84,0.03,0.06,0.03,0.03,0,0,0.01,0,0,'Common Carp'
0.74,0.11,0.01,0.06,0.02,0.02,0,0.01,0.03,0,'Common Carp'
0.76,0.1,0.02,0.02,0.03,0.02,0.02,0.01,0.01,0.01,'Common Carp'
0.84,0.11,0.02,0,0,0.01,0,0.01,0,0.01,'Common Carp'
0.65,0.19,0.01,0.04,0.04,0.02,0.04,0,0.01,0,'Common Carp'
0.78,0.11,0.03,0.02,0.04,0,0.01,0,0,0.01,'Common Carp'
0.71,0.14,0.05,0.02,0.02,0,0.04,0.01,0.01,0,'Common Carp'
0.2,0.43,0.22,0.06,0.04,0.03,0.01,0,0.01,0,'Common Carp'
0.84,0.08,0.04,0.01,0.01,0,0.01,0,0.01,0,'Common Carp'
0.59,0.22,0.05,0.02,0.02,0.02,0.02,0.04,0.01,0.01,'Common Carp'
0.84,0.06,0.04,0.03,0.02,0.01,0,0,0,0,'Common Carp'
0.83,0.05,0.06,0.02,0.03,0,0,0.01,0,0,'Common Carp'
0.89,0.08,0.01,0.01,0,0,0.01,0,0,0,'Common Carp'
0.57,0.19,0.06,0.03,0.02,0.07,0.03,0.03,0,0,'Common Carp'
0.73,0.11,0.08,0.02,0.03,0.01,0.01,0,0.01,0,'Common Carp'
0.5,0.26,0.04,0.09,0.06,0.01,0.03,0,0,0.01,'Common Carp'
0.78,0.04,0.05,0.05,0.05,0.02,0.01,0,0,0,'Common Carp'
0.83,0.04,0.02,0.05,0.02,0.02,0,0.01,0,0.01,'Common Carp'
0.7,0.13,0.01,0.04,0.05,0.04,0.01,0.01,0,0.01,'Common Carp'
0.79,0.06,0.03,0.04,0.04,0.02,0.01,0,0,0.01,'Common Carp'
0.78,0.09,0.05,0.03,0.02,0.01,0,0.01,0,0.01,'Common Carp'
0.8,0.08,0.04,0.01,0.03,0.02,0.02,0,0,0,'Common Carp'
0.84,0.05,0.01,0.02,0.03,0.01,0.02,0.01,0.01,0,'Common Carp'
0.75,0.13,0.03,0.02,0.01,0.02,0.03,0.01,0,0,'Common Carp'
0.65,0.2,0,0.04,0.05,0.04,0,0.01,0.01,0,'Common Carp'
0.72,0.14,0.05,0.04,0.02,0.02,0,0.01,0,0,'Common Carp'
0.8,0.11,0.05,0.01,0,0.01,0,0.02,0,0,'Common Carp'
0.83,0.06,0.06,0.02,0.01,0,0.01,0,0,0.01,'Common Carp'
0.86,0.03,0.02,0.02,0.03,0.02,0,0.02,0,0,'Common Carp'
0.63,0.24,0.07,0.03,0.02,0,0.01,0,0,0,'Common Carp'
0.79,0.08,0.03,0.03,0.03,0.03,0.01,0,0,0,'Common Carp'
0.66,0.15,0.05,0.01,0.04,0.03,0.01,0.02,0.03,0,'Common Carp'
0.34,0.44,0.06,0.07,0.04,0.03,0.01,0.01,0,0,'Common Carp'
0.83,0.07,0.02,0.04,0.01,0.01,0.01,0,0.01,0,'Common Carp'
0.57,0.22,0.08,0.04,0.03,0.02,0.02,0.02,0,0,'Common Carp'
0.76,0.11,0.03,0.03,0.05,0.01,0,0,0.01,0,'Common Carp'
0.85,0.07,0.01,0.01,0.02,0.02,0.01,0,0.01,0,'Common Carp'
0.62,0.14,0.03,0.03,0.04,0.07,0.02,0.02,0.03,0,'Common Carp'
0.78,0.1,0.04,0.02,0.01,0.03,0,0.01,0.01,0,'Common Carp'
0.65,0.22,0.04,0.02,0.03,0.04,0,0,0,0,'Common Carp'
0.85,0.09,0.01,0.01,0.03,0,0,0.01,0,0,'Common Carp'
0.83,0.02,0.02,0.05,0.02,0.03,0.01,0.01,0.01,0,'Common Carp'
0.79,0.1,0.06,0.02,0.01,0,0,0,0.01,0.01,'Common Carp'
0.83,0.07,0.04,0.02,0.01,0.01,0,0.02,0,0,'Common Carp'
0.86,0.06,0.02,0.02,0.02,0,0,0.01,0.01,0,'Common Carp'
0.73,0.18,0.04,0,0.05,0,0,0,0,0,'Common Carp'
0.71,0.18,0.03,0.03,0,0.01,0.02,0.01,0.01,0,'Common Carp'
0.85,0.04,0.03,0.02,0.02,0.01,0.02,0.01,0,0,'Common Carp'
0.75,0.12,0.06,0.02,0.02,0.01,0.01,0.01,0,0,'Common Carp'
0.41,0.32,0.08,0.02,0.06,0.05,0.03,0.02,0.01,0,'Common Carp'
0.81,0.06,0,0.03,0.02,0.04,0.02,0.01,0.01,0,'Common Carp'
0.74,0.1,0.06,0.04,0.01,0.03,0.01,0,0.01,0,'Common Carp'
0.82,0.09,0.04,0.01,0.01,0,0.02,0,0,0.01,'Common Carp'
0.69,0.14,0.06,0.01,0.04,0.02,0.02,0.01,0,0.01,'Common Carp'
0.77,0.13,0.04,0.02,0.01,0.01,0.01,0.01,0,0,'Common Carp'
0.78,0.06,0.02,0.06,0.04,0,0.03,0.01,0,0,'Common Carp'
0.59,0.22,0.05,0.01,0.05,0.03,0.03,0,0.01,0.01,'Common Carp'
0.64,0.25,0.03,0.02,0.02,0.03,0.01,0,0,0,'Common Carp'
0.79,0.14,0.03,0.02,0,0,0,0,0.01,0.01,'Common Carp'
0.46,0.39,0.06,0.01,0.02,0.03,0.03,0,0,0,'Common Carp'
0.76,0.14,0.06,0.02,0,0,0,0,0.01,0.01,'Common Carp'
0.46,0.28,0.04,0.06,0.02,0.07,0.05,0,0.02,0,'Common Carp'
0.74,0.09,0.07,0.03,0.02,0.01,0,0.02,0,0.02,'Common Carp'
0.73,0.13,0.04,0.02,0.02,0.01,0,0.01,0.01,0.03,'Common Carp'
0.89,0.03,0.02,0.03,0.01,0,0.01,0,0.01,0,'Common Carp'
0.73,0.14,0.05,0.03,0.01,0.02,0,0.01,0,0.01,'Common Carp'
0.67,0.17,0.01,0.03,0.05,0.01,0.04,0.02,0,0,'Common Carp'
0.45,0.35,0.05,0.03,0.02,0.04,0.02,0.03,0.01,0,'Common Carp'
0.78,0.12,0.04,0,0.03,0.01,0,0.01,0,0.01,'Common Carp'
0.79,0.06,0.04,0.02,0.06,0.02,0,0,0.01,0,'Common Carp'
0.67,0.19,0.03,0.03,0,0.05,0.02,0,0,0.01,'Common Carp'
0.8,0.12,0.03,0.01,0.02,0,0,0,0.02,0,'Common Carp'
0.78,0.05,0.03,0.04,0.05,0.02,0.02,0,0.01,0,'Common Carp'
0.93,0.03,0,0.02,0,0.01,0.01,0,0,0,'Common Carp'
0.8,0.09,0.02,0.04,0.02,0,0.02,0,0.01,0,'Common Carp'
0.81,0.06,0.05,0.03,0.02,0,0.01,0.01,0.01,0,'Common Carp'
0.82,0.06,0.03,0.02,0.04,0.02,0,0,0.01,0,'Common Carp'
0.77,0.09,0.05,0.02,0.02,0.01,0.02,0.02,0,0,'Common Carp'
0.81,0.08,0.05,0.02,0.01,0.01,0,0.01,0.01,0,'Common Carp'
0.55,0.32,0.05,0.02,0.03,0.03,0,0,0,0,'Common Carp'
0.65,0.09,0.06,0.02,0.09,0.03,0.04,0.01,0,0.01,'Common Carp'
0.85,0.1,0.02,0,0,0.01,0,0.01,0,0.01,'Common Carp'
0.87,0.02,0.01,0.04,0.03,0.01,0.02,0,0,0,'Common Carp'
0.87,0.06,0.02,0.02,0,0.01,0.01,0.01,0,0,'Common Carp'
0.55,0.29,0.07,0.01,0.05,0.02,0.01,0,0,0,'Common Carp'
0.57,0.25,0.03,0.01,0.05,0.06,0.01,0,0.02,0,'Common Carp'
0.82,0.11,0.03,0.01,0.01,0.01,0,0.01,0,0,'Common Carp'
0.79,0.07,0.03,0.03,0.05,0.02,0.01,0,0,0,'Common Carp'
0.79,0.04,0.03,0.04,0.06,0,0.03,0.01,0,0,'Common Carp'
0.81,0.04,0.04,0.03,0.04,0.02,0.01,0,0,0.01,'Common Carp'
0.8,0.07,0.02,0.04,0.02,0.04,0,0,0,0.01,'Common Carp'
0.81,0.09,0.05,0.01,0.01,0.02,0,0,0,0.01,'Common Carp'
0.75,0.08,0.07,0.03,0.04,0.01,0.01,0.01,0,0,'Common Carp'
0.74,0.11,0.07,0.02,0.03,0.02,0.01,0,0,0,'Common Carp'
0.78,0.11,0.03,0.03,0.02,0.01,0.01,0.01,0,0,'Common Carp'
0.8,0.11,0.04,0.03,0,0,0,0.01,0.01,0,'Common Carp'
0.82,0.04,0.03,0.02,0.06,0.01,0.02,0,0,0,'Common Carp'
0.85,0.05,0.03,0.02,0.01,0.01,0,0.03,0,0,'Common Carp'
0.86,0.07,0.04,0.01,0.01,0.01,0,0,0,0,'Common Carp'
0.91,0.03,0,0.01,0.01,0.01,0.02,0.01,0,0,'Common Carp'
0.75,0.09,0.07,0.06,0.02,0.01,0,0,0,0,'Common Carp'
0.78,0.11,0.03,0.05,0.01,0.01,0,0.01,0,0,'Common Carp'
0.79,0.04,0.04,0.01,0.03,0.04,0.02,0.02,0,0.01,'Common Carp'
0.71,0.08,0.08,0.04,0.02,0.03,0.02,0.02,0,0,'Common Carp'
0.72,0.07,0.05,0.03,0.06,0.03,0.03,0,0.01,0,'Common Carp'
0.79,0.09,0.04,0.04,0.02,0,0,0.01,0.01,0,'Common Carp'
0.42,0.31,0.09,0.05,0.03,0.03,0.02,0.02,0.02,0.01,'Domestic Cat'
0.28,0.51,0.05,0.05,0.02,0,0.01,0,0.03,0.05,'Domestic Cat'
0.53,0.3,0.11,0.03,0.01,0.01,0,0.01,0,0,'Domestic Cat'
0.75,0.2,0.02,0.01,0,0.01,0.01,0,0,0,'Domestic Cat'
0.66,0.17,0.09,0.02,0.04,0.01,0,0.01,0,0,'Domestic Cat'
0.23,0.3,0.21,0.14,0.09,0.03,0,0,0,0,'Domestic Cat'
0.16,0.5,0.15,0.05,0.04,0.04,0.01,0.02,0.02,0.01,'Domestic Cat'
0.36,0.3,0.17,0.12,0.02,0.02,0.01,0,0,0,'Domestic Cat'
0.31,0.12,0.15,0.22,0.1,0.05,0.04,0,0.01,0,'Domestic Cat'
0.3,0.17,0.09,0.08,0.11,0.19,0.02,0.01,0.01,0.02,'Domestic Cat'
0.89,0.04,0.04,0.01,0.02,0,0,0,0,0,'Domestic Cat'
0.58,0.28,0.06,0.03,0.02,0.01,0,0.01,0.01,0,'Domestic Cat'
0.33,0.14,0.08,0.11,0.1,0.1,0.06,0.04,0.02,0.02,'Domestic Cat'
0.22,0.21,0.21,0.17,0.07,0.06,0.02,0.03,0.01,0,'Domestic Cat'
0.36,0.27,0.28,0.03,0.04,0.01,0,0.01,0,0,'Domestic Cat'
0.25,0.25,0.17,0.07,0.05,0.04,0.07,0.04,0.05,0.01,'Domestic Cat'
0.39,0.33,0.13,0.06,0.04,0,0.01,0,0.03,0.01,'Domestic Cat'
0.82,0.03,0.02,0.03,0.03,0.02,0.02,0.02,0.01,0,'Domestic Cat'
0.19,0.17,0.1,0.1,0.15,0.13,0.11,0.01,0.03,0.01,'Domestic Cat'
0.38,0.18,0.12,0.16,0.07,0.05,0.03,0,0,0.01,'Domestic Cat'
0.27,0.17,0.14,0.15,0.05,0.15,0.04,0.03,0,0,'Domestic Cat'
0.16,0.14,0.21,0.26,0.21,0.02,0,0,0,0,'Domestic Cat'
0.66,0.17,0.09,0.02,0.04,0.01,0,0.01,0,0,'Domestic Cat'
0.15,0.15,0.15,0.15,0.16,0.12,0.07,0.03,0.02,0,'Domestic Cat'
0.23,0.31,0.26,0.02,0.02,0.02,0.04,0.06,0.04,0,'Domestic Cat'
0.52,0.25,0.1,0.1,0.02,0,0,0.01,0,0,'Domestic Cat'
0.21,0.52,0.05,0.08,0.02,0.03,0.02,0.03,0.02,0.02,'Domestic Cat'
0.23,0.24,0.19,0.1,0.09,0.06,0.04,0.05,0,0,'Domestic Cat'
0.39,0.3,0.11,0.05,0.02,0.01,0.04,0.02,0.03,0.03,'Domestic Cat'
0.15,0.07,0.17,0.2,0.17,0.12,0.07,0.03,0.02,0,'Domestic Cat'
0.48,0.27,0.14,0.06,0.02,0.02,0,0.01,0,0,'Domestic Cat'
0.38,0.26,0.21,0.02,0.03,0.02,0.03,0.03,0.01,0.01,'Domestic Cat'
0.5,0.32,0.07,0.09,0,0,0.01,0,0.01,0,'Domestic Cat'
0.41,0.16,0.16,0.07,0.05,0.03,0.05,0.01,0.01,0.05,'Domestic Cat'
0.25,0.19,0.21,0.16,0.12,0.01,0.01,0.02,0.03,0,'Domestic Cat'
0.14,0.34,0.2,0.1,0.12,0.05,0.02,0.01,0.01,0.01,'Domestic Cat'
0.68,0.13,0.1,0.03,0.03,0,0.01,0.01,0.01,0,'Domestic Cat'
0.45,0.21,0.11,0.12,0.02,0.04,0.02,0,0.01,0.02,'Domestic Cat'
0.38,0.27,0.2,0.07,0.05,0.01,0.02,0,0,0,'Domestic Cat'
0.82,0.11,0.03,0.01,0.01,0.01,0,0,0.01,0,'Domestic Cat'
0.47,0.28,0.1,0.1,0.04,0.01,0,0,0,0,'Domestic Cat'
0.49,0.19,0.12,0.07,0.03,0.08,0.01,0.01,0,0,'Domestic Cat'
0.73,0.14,0.03,0,0.01,0.01,0.02,0.03,0.03,0,'Domestic Cat'
0.33,0.16,0.14,0.3,0.06,0,0,0,0,0.01,'Domestic Cat'
0.4,0.44,0.05,0.06,0.01,0.02,0,0.02,0,0,'Domestic Cat'
0.72,0.14,0.05,0.06,0,0.01,0.02,0,0,0,'Domestic Cat'
0.27,0.36,0.17,0.09,0.04,0.03,0.02,0.02,0,0,'Domestic Cat'
0.63,0.17,0.06,0.05,0.01,0.05,0.02,0,0.01,0,'Domestic Cat'
0.57,0.26,0.07,0.03,0.01,0.03,0,0.02,0.01,0,'Domestic Cat'
0.4,0.22,0.14,0.12,0.09,0.01,0.02,0,0,0,'Domestic Cat'
0.12,0.11,0.12,0.17,0.12,0.17,0.13,0.04,0.01,0.01,'Domestic Cat'
0.52,0.25,0.12,0.03,0.04,0.02,0,0.01,0,0.01,'Domestic Cat'
0.59,0.27,0.07,0.04,0.02,0.01,0,0,0,0,'Domestic Cat'
0.61,0.12,0.08,0.07,0.03,0.03,0.06,0,0,0,'Domestic Cat'
0.22,0.31,0.2,0.14,0.08,0.04,0.01,0,0,0,'Domestic Cat'
0.39,0.45,0.07,0.02,0.01,0.02,0.03,0,0.01,0,'Domestic Cat'
0.51,0.24,0.13,0.05,0.01,0.04,0,0.02,0,0,'Domestic Cat'
0.41,0.2,0.19,0.05,0.09,0.06,0,0,0,0,'Domestic Cat'
0.3,0.26,0.13,0.07,0.12,0.07,0.03,0.01,0.01,0,'Domestic Cat'
0.22,0.17,0.15,0.12,0.16,0.1,0.02,0.04,0.02,0,'Domestic Cat'
0.47,0.31,0.14,0.04,0.01,0,0.01,0.01,0,0.01,'Domestic Cat'
0.13,0.34,0.2,0.11,0.11,0.05,0.03,0.01,0.01,0.01,'Domestic Cat'
0.76,0.06,0.02,0.02,0.04,0.04,0.04,0.02,0,0,'Domestic Cat'
0.04,0.19,0.2,0.21,0.2,0.14,0.02,0,0,0,'Domestic Cat'
0.41,0.22,0.1,0.11,0.09,0.04,0.02,0,0.01,0,'Domestic Cat'
0.18,0.15,0.24,0.22,0.08,0.05,0.05,0.03,0,0,'Domestic Cat'
0.3,0.2,0.09,0.13,0.12,0.04,0.06,0.02,0.04,0,'Domestic Cat'
0.28,0.24,0.15,0.1,0.1,0.08,0.04,0.01,0,0,'Domestic Cat'
0.19,0.12,0.15,0.29,0.12,0.05,0.05,0.01,0.01,0.01,'Domestic Cat'
0.36,0.31,0.16,0.12,0,0.04,0,0.01,0,0,'Domestic Cat'
0.05,0.13,0.31,0.28,0.05,0.07,0.03,0.03,0.04,0.01,'Domestic Cat'
0.55,0.24,0.04,0.03,0.02,0.03,0.01,0.05,0.01,0.02,'Domestic Cat'
0.43,0.35,0.09,0.06,0.04,0,0.02,0,0.01,0,'Domestic Cat'
0.67,0.2,0.09,0.03,0,0,0,0,0.01,0,'Domestic Cat'
0.29,0.41,0.1,0.06,0.07,0.03,0.02,0.01,0.01,0,'Domestic Cat'
0.6,0.15,0.05,0.05,0.03,0.01,0.05,0.04,0.01,0.01,'Domestic Cat'
0.13,0.55,0.1,0.08,0.05,0.04,0.02,0.01,0.01,0.01,'Domestic Cat'
0.39,0.28,0.15,0.07,0.04,0.03,0.01,0.02,0.01,0,'Domestic Cat'
0.4,0.22,0.15,0.06,0.08,0.02,0.03,0.02,0,0.02,'Domestic Cat'
0.77,0.07,0.04,0.01,0.04,0.03,0.01,0.02,0.01,0,'Domestic Cat'
0.49,0.26,0.1,0.05,0.04,0.03,0.01,0.01,0,0.01,'Domestic Cat'
0.62,0.16,0.05,0.05,0.05,0.02,0.03,0.01,0.01,0,'Domestic Cat'
0.61,0.2,0.09,0.03,0.01,0.04,0,0.02,0,0,'Domestic Cat'
0.41,0.32,0.09,0.06,0.11,0.01,0,0,0,0,'Domestic Cat'
0.43,0.33,0.11,0.05,0.04,0.01,0,0.03,0,0,'Domestic Cat'
0.26,0.19,0.14,0.14,0.09,0.04,0.04,0.04,0.05,0.01,'Domestic Cat'
0.16,0.31,0.19,0.13,0.03,0.05,0.04,0.06,0.03,0,'Domestic Cat'
0.37,0.25,0.2,0.1,0.04,0.04,0,0,0,0,'Domestic Cat'
0.72,0.16,0.07,0.02,0.01,0,0.01,0,0,0.01,'Domestic Cat'
0.43,0.17,0.07,0.15,0.1,0.05,0.02,0,0.01,0,'Domestic Cat'
0.31,0.24,0.19,0.07,0.08,0.01,0.04,0.03,0.03,0,'Domestic Cat'
0.23,0.23,0.21,0.15,0.13,0.03,0.01,0,0.01,0,'Domestic Cat'
0.74,0.17,0.02,0,0,0.02,0.02,0.01,0.01,0.01,'Domestic Cat'
0.1,0.12,0.27,0.26,0.19,0.03,0.02,0,0,0.01,'Domestic Cat'
0.59,0.27,0.07,0.04,0.02,0.01,0,0,0,0,'Domestic Cat'
0.25,0.26,0.09,0.06,0.18,0.08,0.04,0.04,0,0,'Domestic Cat'
0.64,0.09,0.07,0.11,0.04,0.01,0.01,0.01,0.01,0.01,'Domestic Cat'
0.66,0.14,0.08,0.08,0.03,0,0.01,0,0,0,'Domestic Cat'
0.47,0.24,0.16,0.04,0.03,0.03,0.02,0.01,0,0,'Domestic Cat'
0.42,0.07,0.1,0.09,0.14,0.1,0.06,0.01,0.01,0,'Domestic Cat'
0.24,0.3,0.28,0.05,0.03,0.04,0.01,0.03,0.01,0.01,'Domestic Cat'
0.63,0.25,0.04,0.06,0.02,0,0,0,0,0,'Domestic Cat'
0.63,0.25,0.02,0.02,0.04,0.02,0.01,0.01,0,0,'Domestic Cat'
0.59,0.15,0.08,0.07,0.05,0.01,0.02,0.02,0.01,0,'Domestic Cat'
0.15,0.3,0.2,0.14,0.09,0.04,0.03,0.01,0.02,0.02,'Domestic Cat'
0.89,0.04,0.03,0,0.01,0.01,0.01,0,0.01,0,'Domestic Cat'
0.32,0.25,0.19,0.08,0.05,0.02,0.04,0.02,0.02,0.01,'Domestic Cat'
0.48,0.23,0.15,0.03,0.04,0.03,0.03,0.01,0,0,'Domestic Cat'
0.61,0.07,0.08,0.08,0.06,0.06,0.02,0.01,0.01,0,'Domestic Cat'
0.76,0.08,0.07,0.04,0.05,0,0,0,0,0,'Domestic Cat'
0.28,0.29,0.22,0.12,0.06,0.02,0,0.01,0,0,'Domestic Cat'
0.59,0.25,0.06,0.09,0,0,0,0,0.01,0,'Domestic Cat'
0.71,0.18,0.02,0.05,0.02,0,0.01,0.01,0,0,'Domestic Cat'
0.52,0.25,0.04,0.07,0.03,0.01,0.01,0.01,0.05,0.01,'Domestic Cat'
0.54,0.29,0.02,0.08,0.02,0.03,0.01,0,0.01,0,'Domestic Cat'
0.26,0.32,0.22,0.08,0.05,0.03,0.01,0.01,0.02,0,'Domestic Cat'
0.48,0.29,0.11,0.04,0.03,0.02,0.02,0,0,0.01,'Domestic Cat'
0.62,0.24,0.07,0.02,0.02,0.01,0.01,0.01,0,0,'Domestic Cat'
0.3,0.49,0.1,0.04,0.04,0.01,0,0.02,0,0,'Domestic Cat'
0.28,0.4,0.15,0.03,0.02,0.03,0.03,0.01,0.04,0.01,'Domestic Cat'
0.74,0.11,0.07,0.03,0.01,0.02,0.01,0,0.01,0,'Freshwater Shark'
0.32,0.32,0.07,0.13,0.04,0.04,0.02,0.03,0.02,0.01,'Freshwater Shark'
0.64,0.2,0.07,0.03,0.03,0.01,0,0,0,0.02,'Freshwater Shark'
0.89,0.02,0.03,0.03,0.02,0,0.01,0,0,0,'Freshwater Shark'
0.66,0.19,0.06,0.01,0.05,0.01,0.02,0,0,0,'Freshwater Shark'
0.56,0.3,0.05,0.04,0,0.01,0.01,0.01,0.02,0,'Freshwater Shark'
0.49,0.36,0.04,0.03,0.04,0.02,0.01,0,0.01,0,'Freshwater Shark'
0.81,0.1,0.04,0.02,0.02,0.01,0,0,0,0,'Freshwater Shark'
0.82,0.1,0.03,0.01,0.04,0,0,0,0,0,'Freshwater Shark'
0.67,0.13,0.02,0.05,0.07,0.04,0.02,0,0,0,'Freshwater Shark'
0.79,0.12,0.03,0,0.01,0.02,0,0.02,0.01,0,'Freshwater Shark'
0.72,0.18,0.08,0.01,0.01,0,0,0,0,0,'Freshwater Shark'
0.73,0.12,0.08,0.03,0.03,0.01,0,0,0,0,'Freshwater Shark'
0.83,0.06,0.07,0,0.03,0.01,0,0,0,0,'Freshwater Shark'
0.75,0.18,0.03,0.01,0,0,0.02,0,0.01,0,'Freshwater Shark'
0.8,0.09,0.08,0.01,0.01,0.01,0,0,0,0,'Freshwater Shark'
0.81,0.12,0.03,0.01,0.02,0,0,0,0.01,0,'Freshwater Shark'
0.5,0.36,0.03,0.05,0.03,0.01,0.01,0.01,0,0,'Freshwater Shark'
0.83,0.08,0.01,0.02,0.02,0.02,0.01,0.01,0,0,'Freshwater Shark'
0.74,0.13,0.05,0.04,0.02,0.01,0.01,0,0,0,'Freshwater Shark'
0.69,0.22,0.01,0.03,0,0.02,0.02,0,0,0.01,'Freshwater Shark'
0.69,0.18,0.09,0.02,0.01,0.01,0,0,0,0,'Freshwater Shark'
0.6,0.25,0.04,0.03,0.01,0.03,0.02,0.01,0.01,0,'Freshwater Shark'
0.67,0.2,0.05,0.04,0.02,0.02,0,0,0,0,'Freshwater Shark'
0.57,0.36,0.04,0,0,0,0,0.02,0.01,0,'Freshwater Shark'
0.62,0.21,0.08,0.05,0.03,0,0,0,0.01,0,'Freshwater Shark'
0.96,0.03,0,0,0.01,0,0,0,0,0,'Freshwater Shark'
0.78,0.15,0.02,0.02,0.01,0,0,0.01,0.01,0,'Freshwater Shark'
0.91,0.04,0.02,0.03,0,0,0,0,0,0,'Freshwater Shark'
0.86,0.07,0.03,0.02,0.01,0,0.01,0,0,0,'Freshwater Shark'
0.77,0.09,0.04,0.03,0.02,0.05,0,0,0,0,'Freshwater Shark'
0.81,0.06,0.06,0.02,0,0.02,0.01,0.02,0,0,'Freshwater Shark'
0.83,0.11,0.04,0.02,0,0,0,0,0,0,'Freshwater Shark'
0.76,0.11,0.05,0.03,0.04,0,0.01,0,0,0,'Freshwater Shark'
0.79,0.14,0.04,0.02,0,0.01,0,0,0,0,'Freshwater Shark'
0.73,0.16,0.05,0.02,0.04,0,0,0,0,0,'Freshwater Shark'
0.72,0.14,0.06,0.04,0.02,0.01,0,0,0.01,0,'Freshwater Shark'
0.61,0.25,0.07,0.03,0.02,0,0,0,0.02,0,'Freshwater Shark'
0.54,0.25,0.08,0.06,0.05,0,0.01,0,0.01,0,'Freshwater Shark'
0.86,0.08,0.04,0.01,0.01,0,0,0,0,0,'Freshwater Shark'
0.32,0.46,0.07,0.07,0.03,0,0.01,0.02,0.01,0.01,'Freshwater Shark'
0.68,0.19,0.07,0.01,0.03,0.01,0.01,0,0,0,'Freshwater Shark'
0.74,0.15,0.04,0.01,0.02,0.02,0.01,0.01,0,0,'Freshwater Shark'
0.85,0.04,0.01,0.04,0.03,0.01,0.01,0.01,0,0,'Freshwater Shark'
0.71,0.21,0.05,0.02,0.01,0,0,0,0,0,'Freshwater Shark'
0.79,0.07,0.06,0.04,0.01,0.01,0.01,0.01,0,0,'Freshwater Shark'
0.7,0.19,0.03,0.02,0.02,0.01,0,0.01,0.02,0,'Freshwater Shark'
0.72,0.14,0.04,0.01,0.03,0.02,0,0.03,0.01,0,'Freshwater Shark'
0.85,0.09,0.03,0.03,0,0,0,0,0,0,'Freshwater Shark'
0.64,0.24,0.09,0.03,0,0,0,0,0,0,'Freshwater Shark'
0.73,0.13,0.05,0.04,0.01,0.02,0.01,0.01,0,0,'Freshwater Shark'
0.7,0.14,0.06,0.05,0.01,0.01,0.01,0.01,0,0.01,'Freshwater Shark'
0.75,0.12,0.08,0.01,0.01,0.01,0,0.01,0,0.01,'Freshwater Shark'
0.83,0.09,0.04,0.02,0.01,0,0,0,0,0.01,'Freshwater Shark'
0.6,0.24,0.1,0.01,0,0.01,0.03,0.01,0,0,'Freshwater Shark'
0.8,0.13,0.01,0.03,0.01,0.01,0.01,0,0,0,'Freshwater Shark'
0.89,0.03,0.04,0.01,0.01,0.02,0,0,0,0,'Freshwater Shark'
0.77,0.12,0.04,0.04,0.01,0.02,0,0,0,0,'Freshwater Shark'
0.66,0.23,0.05,0.01,0.03,0.02,0,0,0,0,'Freshwater Shark'
0.79,0.11,0.03,0.03,0.01,0.01,0.01,0.01,0,0,'Freshwater Shark'
0.78,0.04,0.06,0.03,0.04,0.03,0.01,0.01,0,0,'Grass Carp'
0.84,0.06,0.02,0.02,0.03,0,0.01,0.01,0.01,0,'Grass Carp'
0.86,0.07,0.03,0.02,0.01,0.01,0,0,0,0,'Grass Carp'
0.82,0.07,0.03,0.03,0.02,0,0.01,0.02,0,0,'Grass Carp'
0.83,0.05,0.05,0.02,0,0.02,0.03,0,0,0,'Grass Carp'
0.57,0.27,0.05,0.02,0.04,0.02,0.02,0.01,0,0,'Grass Carp'
0.8,0.07,0.05,0.01,0.03,0.02,0,0.02,0,0,'Grass Carp'
0.67,0.1,0.08,0.06,0.04,0.01,0.01,0.03,0,0,'Grass Carp'
0.85,0.06,0.04,0.03,0.01,0.01,0,0,0,0,'Grass Carp'
0.86,0.06,0.04,0.03,0,0,0.01,0,0,0,'Grass Carp'
0.8,0.07,0.05,0.04,0.01,0.01,0,0.01,0.01,0,'Grass Carp'
0.88,0.07,0.01,0.01,0.01,0.01,0,0.01,0,0,'Grass Carp'
0.84,0.07,0.04,0.01,0.02,0,0.02,0,0,0,'Grass Carp'
0.84,0.06,0.07,0.02,0,0,0.01,0,0,0,'Grass Carp'
0.82,0.08,0.04,0.01,0.02,0.01,0.01,0,0.01,0,'Grass Carp'
0.84,0.08,0.03,0.01,0.02,0,0.02,0,0,0,'Grass Carp'
0.76,0.12,0.08,0.02,0,0,0,0.02,0,0,'Grass Carp'
0.8,0.1,0.03,0,0.03,0.02,0,0.01,0.01,0,'Grass Carp'
0.8,0.06,0.05,0.02,0.01,0.01,0.03,0,0.02,0,'Grass Carp'
0.52,0.29,0.06,0.05,0.02,0.02,0,0.02,0.01,0.01,'Grass Carp'
0.71,0.11,0.05,0.01,0.01,0.02,0.01,0.03,0.04,0.01,'Grass Carp'
0.89,0.06,0.05,0,0,0,0,0,0,0,'Grass Carp'
0.81,0.09,0.04,0.03,0,0,0,0.02,0,0.01,'Grass Carp'
0.83,0.08,0.04,0.01,0,0,0.03,0.01,0,0,'Grass Carp'
0.81,0.09,0.03,0.01,0.03,0,0.01,0.02,0,0,'Grass Carp'
0.16,0.19,0.17,0.27,0.15,0.04,0.01,0.01,0,0,'Grass Carp'
0.85,0.01,0.03,0.03,0.02,0.03,0.01,0.02,0,0,'Grass Carp'
0.53,0.24,0.1,0.06,0.01,0.02,0.02,0.02,0,0,'Grass Carp'
0.84,0.08,0.04,0.04,0,0,0,0,0,0,'Grass Carp'
0.82,0.12,0.03,0,0.01,0.02,0,0,0,0,'Grass Carp'
0.84,0.08,0.03,0.01,0.01,0.02,0,0,0.01,0,'Grass Carp'
0.63,0.21,0.02,0.03,0.01,0.02,0.03,0.02,0.02,0.01,'Grass Carp'
0.88,0.04,0.03,0.01,0,0.02,0,0.01,0.01,0,'Grass Carp'
0.89,0.04,0.02,0.02,0.01,0.01,0,0.01,0,0,'Grass Carp'
0.74,0.12,0.05,0.04,0.02,0.01,0,0.01,0.01,0,'Grass Carp'
0.85,0.11,0.01,0,0,0.01,0.01,0,0,0.01,'Grass Carp'
0.75,0.14,0.02,0.06,0.02,0.01,0,0,0,0,'Grass Carp'
0.83,0.08,0.02,0.03,0.01,0.01,0.01,0,0.01,0,'Grass Carp'
0.76,0.12,0.04,0.03,0.01,0.02,0,0.01,0,0.01,'Grass Carp'
0.51,0.26,0.08,0.04,0.03,0.03,0.02,0.02,0.01,0,'Grass Carp'
0.88,0.05,0.03,0.02,0,0.01,0,0.01,0,0,'Grass Carp'
0.82,0.09,0.03,0,0.02,0.02,0,0.01,0.01,0,'Grass Carp'
0.87,0.06,0.05,0.01,0.01,0,0,0,0,0,'Grass Carp'
0.87,0.05,0.04,0.02,0,0.01,0.01,0,0,0,'Grass Carp'
0.56,0.25,0.05,0.04,0.02,0.03,0.01,0,0.02,0.02,'Grass Carp'
0.86,0.03,0.04,0.02,0.01,0.02,0.01,0.01,0,0,'Grass Carp'
0.67,0.14,0.08,0.04,0.02,0.04,0.01,0,0,0,'Grass Carp'
0.31,0.16,0.24,0.16,0.09,0.03,0,0,0,0.01,'Grass Carp'
0.75,0.1,0.02,0.06,0.02,0.02,0.02,0.01,0,0,'Grass Carp'
0.92,0.03,0.03,0.01,0.01,0,0,0,0,0,'Grass Carp'
0.1,0.17,0.4,0.22,0.06,0.02,0.01,0.01,0.01,0,'Grass Carp'
0.75,0.11,0.08,0,0,0.03,0.02,0.01,0,0,'Grass Carp'
0.84,0.05,0.05,0.02,0.01,0.02,0.01,0,0,0,'Grass Carp'
0.14,0.23,0.36,0.06,0.07,0.08,0.03,0.02,0,0.01,'Grass Carp'
0.76,0.09,0.02,0.03,0.01,0.01,0,0.03,0.01,0.04,'Grass Carp'
0.88,0.05,0.01,0.01,0,0,0.02,0.01,0.01,0.01,'Grass Carp'
0.82,0.05,0.04,0.05,0.01,0.01,0.01,0,0.01,0,'Grass Carp'
0.86,0.08,0.01,0.01,0.02,0.01,0,0,0.01,0,'Grass Carp'
0.46,0.29,0.14,0.04,0.02,0.01,0.03,0.01,0,0,'Grass Carp'
0.46,0.29,0.14,0.04,0.02,0.01,0.03,0.01,0,0,'Grass Carp'
0.74,0.14,0.06,0,0,0.01,0.03,0.02,0,0,'Grass Carp'
0.82,0.12,0.04,0,0.01,0,0,0.01,0,0,'Grass Carp'
0.87,0.03,0.03,0.02,0,0.02,0.02,0,0.01,0,'Grass Carp'
0.86,0.07,0.04,0.01,0.01,0.01,0,0,0,0,'Grass Carp'
0.7,0.2,0.02,0.01,0.02,0,0.02,0.03,0,0,'Grass Carp'
0.86,0.05,0.03,0.01,0,0.02,0.02,0,0,0.01,'Grass Carp'
0.78,0.08,0.05,0.04,0.01,0.02,0.01,0.01,0,0,'Grass Carp'
0.78,0.1,0.06,0.02,0.03,0,0.01,0,0,0,'Grass Carp'
0.73,0.16,0.06,0.02,0.01,0.01,0,0.01,0,0,'Grass Carp'
0.1,0.17,0.4,0.22,0.06,0.02,0.01,0.01,0.01,0,'Grass Carp'
0.9,0.03,0.01,0.02,0.01,0.01,0.02,0,0,0,'Grass Carp'
0.88,0.04,0.01,0.05,0,0.02,0,0,0,0,'Grass Carp'
0.9,0.03,0.03,0.02,0.01,0.01,0,0,0,0,'Grass Carp'
0.94,0.03,0.02,0,0.01,0,0,0,0,0,'Grass Carp'
0.67,0.11,0.08,0.06,0.02,0.02,0.02,0.01,0.01,0,'Grass Carp'
0.43,0.25,0.23,0.03,0.02,0.03,0,0,0.01,0,'Grass Carp'
0.83,0.11,0.02,0.02,0.01,0,0.01,0,0,0,'Grass Carp'
0.82,0.05,0.04,0.03,0.01,0.01,0.01,0.02,0.01,0,'Grass Carp'
0.88,0.07,0.02,0.01,0.01,0,0,0.01,0,0,'Grass Carp'
0.79,0.07,0.03,0.02,0.01,0.03,0.02,0.01,0.01,0.01,'Grass Carp'
0.83,0.05,0.07,0.03,0.01,0,0,0.01,0,0,'Grass Carp'
0.67,0.14,0.05,0.03,0.01,0.01,0.03,0.03,0.01,0.02,'Grass Carp'
0.87,0.01,0.05,0.03,0,0.01,0.01,0.01,0,0.01,'Grass Carp'
0.64,0.2,0.06,0.04,0.03,0,0.01,0.01,0.01,0,'Grass Carp'
0.82,0.04,0.06,0.04,0.03,0,0,0,0,0.01,'Grass Carp'
0.68,0.16,0.03,0.03,0.02,0,0.03,0.01,0.04,0,'Grass Carp'
0.83,0.09,0.04,0.03,0.01,0,0,0,0,0,'Grass Carp'
0.8,0.09,0.04,0.02,0.02,0.01,0,0.02,0,0,'Grass Carp'
0.87,0.08,0.01,0.02,0,0,0.01,0.01,0,0,'Grass Carp'
0.83,0.06,0.04,0.01,0.02,0,0.03,0.01,0,0,'Grass Carp'
0.86,0.06,0.01,0.03,0.01,0,0.03,0,0,0,'Grass Carp'
0.82,0.05,0.04,0.03,0.02,0.01,0.01,0.02,0,0,'Grass Carp'
0.92,0.05,0.01,0.01,0,0,0,0,0,0.01,'Grass Carp'
0.83,0.05,0.03,0.03,0.03,0,0.02,0.01,0,0,'Grass Carp'
0.81,0.08,0.02,0.04,0.02,0.01,0.01,0,0.01,0,'Grass Carp'
0.77,0.07,0.03,0.05,0.01,0.03,0.02,0.02,0,0,'Grass Carp'
0.17,0.15,0.2,0.27,0.16,0.02,0.03,0,0,0,'Grass Carp'
0.82,0.04,0.03,0.05,0,0.04,0.01,0,0.01,0,'Grass Carp'
0.52,0.17,0.14,0.03,0.04,0.04,0.01,0.02,0.02,0.01,'Grass Carp'
0.87,0.05,0.04,0.01,0.02,0,0,0,0.01,0,'Grass Carp'
0.64,0.2,0.04,0.01,0.04,0.01,0.01,0.05,0,0,'Grass Carp'
0.76,0.14,0.04,0.04,0,0,0.01,0.01,0,0,'Grass Carp'
0.27,0.24,0.17,0.21,0.09,0.01,0,0.01,0,0,'Grass Carp'
0.32,0.46,0.03,0.03,0.03,0.03,0,0.01,0.04,0.05,'Grass Carp'
0.79,0.09,0.06,0.02,0.01,0.01,0.01,0,0.01,0,'Grass Carp'
0.54,0.26,0.09,0.02,0.01,0.04,0.01,0.02,0.01,0,'Grass Carp'
0.75,0.04,0.07,0.05,0.04,0,0.04,0.01,0,0,'Grass Carp'
0.55,0.22,0.07,0.03,0.02,0,0.02,0.02,0.06,0.01,'Grass Carp'
0.68,0.18,0.04,0.04,0.02,0.01,0.01,0.02,0,0,'Grass Carp'
0.76,0.05,0.03,0.02,0.04,0.04,0.01,0.02,0.03,0,'Grass Carp'
0.83,0.05,0.03,0.02,0.04,0,0,0.02,0.01,0,'Grass Carp'
0.91,0.03,0.03,0.01,0.01,0,0.01,0,0,0,'Grass Carp'
0.8,0.06,0.03,0.04,0.01,0.02,0.01,0.02,0,0.01,'Grass Carp'
0.85,0.04,0.03,0.03,0.03,0.02,0,0,0,0,'Grass Carp'
0.83,0.07,0.01,0.02,0.02,0.02,0.01,0.01,0.01,0,'Grass Carp'
0.87,0.05,0.05,0,0,0,0.01,0.01,0.01,0,'Grass Carp'
0.85,0.06,0.01,0.03,0.02,0.01,0.01,0.01,0,0,'Grass Carp'
0.17,0.22,0.16,0.28,0.14,0.02,0,0.01,0,0,'Grass Carp'
0.47,0.41,0.06,0.02,0.02,0,0,0.01,0.01,0,'Grass Carp'
0.37,0.14,0.22,0.13,0.05,0.04,0.03,0,0.02,0,'Grass Carp'
0.61,0.21,0.13,0.04,0,0,0,0,0.01,0,Jaguar
0.46,0.27,0.15,0.02,0.05,0.03,0,0.02,0,0,Jaguar
0.42,0.26,0.08,0.07,0.06,0.06,0.02,0.02,0.01,0,Jaguar
0.14,0.16,0.21,0.15,0.32,0.02,0,0,0,0,Jaguar
0.54,0.24,0.14,0.05,0.01,0,0.01,0.01,0,0,Jaguar
0.46,0.32,0.18,0.03,0,0,0.01,0,0,0,Jaguar
0.41,0.22,0.14,0.08,0.09,0.02,0.03,0.01,0,0,Jaguar
0.2,0.23,0.17,0.1,0.06,0.02,0.05,0.07,0.08,0.02,Jaguar
0.61,0.14,0.09,0.04,0.03,0.06,0.02,0,0,0.01,Jaguar
0.27,0.21,0.14,0.08,0.11,0.14,0.03,0.02,0,0,Jaguar
0.89,0.09,0.01,0.01,0,0,0,0,0,0,Jaguar
0.28,0.32,0.11,0.08,0.07,0.05,0.02,0,0.03,0.04,Jaguar
0.65,0.18,0.02,0.02,0,0.07,0.02,0.03,0.01,0,Jaguar
0.83,0.06,0.04,0.04,0.01,0,0.02,0,0,0,Jaguar
0.17,0.35,0.13,0.1,0.06,0.02,0.07,0.05,0.03,0.02,Jaguar
0.36,0.23,0.11,0.12,0.1,0.04,0.03,0.01,0,0,Jaguar
0.52,0.36,0.05,0.04,0.02,0,0,0,0.01,0,Jaguar
0.12,0.07,0.46,0.12,0.03,0.04,0.06,0.04,0.03,0.03,Jaguar
0.5,0.23,0.11,0.06,0.04,0.03,0.02,0.01,0,0,Jaguar
0.11,0.11,0.08,0.11,0.29,0.12,0.06,0.07,0.04,0.01,Jaguar
0.36,0.4,0.09,0.09,0.03,0.01,0.01,0,0.01,0,Jaguar
0.2,0.4,0.19,0.09,0.06,0.05,0.01,0,0,0,Jaguar
0.85,0.05,0.02,0.03,0.03,0.01,0,0,0.01,0,Jaguar
0.59,0.23,0.11,0.02,0.03,0.01,0.01,0,0,0,Jaguar
0.79,0.14,0.03,0.01,0.01,0,0.02,0,0,0,Jaguar
0.39,0.29,0.18,0.06,0.04,0.02,0.01,0,0.01,0,Jaguar
0.54,0.21,0.09,0.09,0.05,0.01,0.01,0,0,0,Jaguar
0.45,0.24,0.11,0.05,0.05,0.04,0.04,0.01,0.01,0,Jaguar
0.57,0.28,0.08,0.06,0.01,0,0,0,0,0,Jaguar
0.6,0.26,0.1,0.03,0.01,0,0,0,0,0,Jaguar
0.18,0.37,0.09,0.1,0.12,0.09,0.02,0.03,0,0,Jaguar
0.45,0.31,0.15,0.06,0.03,0,0,0,0,0,Jaguar
0.39,0.27,0.11,0.13,0.09,0,0.01,0,0,0,Jaguar
0.6,0.08,0.09,0.04,0.02,0.01,0.06,0.03,0.07,0,Jaguar
0.4,0.38,0.09,0.06,0.03,0.02,0.01,0,0.01,0,Jaguar
0.51,0.28,0.08,0.07,0.03,0.01,0.01,0.01,0,0,Jaguar
0.13,0.16,0.18,0.13,0.12,0.09,0.09,0.07,0.03,0,Jaguar
0.31,0.33,0.09,0.06,0.09,0.04,0.06,0.02,0,0,Jaguar
0.26,0.25,0.14,0.06,0.03,0.23,0.02,0,0.01,0,Jaguar
0.42,0.21,0.09,0.13,0.1,0.03,0.01,0,0,0.01,Jaguar
0.5,0.17,0.22,0.02,0.05,0.01,0.01,0.01,0.01,0,Jaguar
0.32,0.21,0.18,0.16,0.07,0.05,0.01,0,0,0,Jaguar
0.62,0.23,0.08,0.04,0.01,0.01,0,0.01,0,0,Jaguar
0.46,0.4,0.08,0.01,0.04,0,0,0,0.01,0,Jaguar
0.66,0.19,0.1,0.03,0,0.01,0.01,0,0,0,Jaguar
0.58,0.28,0.08,0.02,0.01,0.02,0,0,0.01,0,Jaguar
0.9,0.06,0.03,0,0.01,0,0,0,0,0,Jaguar
0.5,0.19,0.1,0.01,0.06,0.08,0.06,0,0,0,Jaguar
0.47,0.18,0.09,0.12,0.05,0.03,0.04,0,0.02,0,Jaguar
0.59,0.25,0.07,0.03,0.03,0.02,0,0.01,0,0,Jaguar
0.78,0.13,0.05,0,0.02,0,0.01,0.01,0,0,Jaguar
0.17,0.16,0.2,0.16,0.13,0.08,0.03,0.02,0.02,0.03,Jaguar
0.2,0.43,0.18,0.07,0.02,0.01,0,0.02,0.06,0.01,Jaguar
0.57,0.25,0.07,0.05,0.06,0,0,0,0,0,Jaguar
0.61,0.33,0.05,0,0,0.01,0,0,0,0,Jaguar
0.62,0.22,0.07,0.05,0.01,0.02,0,0.01,0,0,Jaguar
0.28,0.54,0.05,0.06,0.01,0.03,0.01,0,0.01,0.01,Jaguar
0.33,0.24,0.17,0.11,0.08,0.01,0.02,0,0.01,0.03,Jaguar
0.2,0.24,0.22,0.15,0.1,0.01,0.04,0.02,0.01,0.01,Jaguar
0.34,0.22,0.21,0.11,0.08,0,0.02,0.02,0,0,Jaguar
0.89,0.09,0.01,0.01,0,0,0,0,0,0,Jaguar
0.47,0.21,0.13,0.09,0.07,0.02,0.01,0,0,0,Jaguar
0.7,0.24,0.03,0.02,0.01,0,0,0,0,0,Jaguar
0.45,0.38,0.09,0.02,0.01,0.02,0.03,0,0,0,Jaguar
0.43,0.27,0.14,0.05,0.03,0.06,0,0,0.02,0,Jaguar
0.51,0.26,0.13,0.04,0.01,0.03,0.01,0.01,0,0,Jaguar
0.42,0.22,0.19,0.14,0.02,0,0,0,0.01,0,Jaguar
0.32,0.22,0.14,0.12,0.08,0.04,0.04,0.03,0.01,0,Jaguar
0.42,0.17,0.12,0.09,0.04,0.08,0.05,0.01,0.01,0.01,Jaguar
0.35,0.29,0.17,0.08,0.05,0.03,0.02,0.01,0,0,Jaguar
0.53,0.24,0.14,0.04,0.02,0.01,0.02,0,0,0,Jaguar
0.43,0.23,0.14,0.08,0.07,0.03,0.01,0,0.01,0,Jaguar
0.31,0.12,0.12,0.19,0.16,0.06,0.03,0.01,0,0,Jaguar
0.19,0.1,0.23,0.25,0.06,0.11,0.04,0.01,0,0.01,Jaguar
0.57,0.23,0.09,0.1,0,0,0.01,0,0,0,Jaguar
0.16,0.23,0.26,0.15,0.05,0.04,0.05,0.05,0.01,0,Jaguar
0.48,0.2,0.13,0.09,0.07,0.02,0.01,0,0,0,Jaguar
0.37,0.26,0.18,0.09,0.03,0.04,0,0.02,0,0.01,Jaguar
0.51,0.38,0.07,0.02,0.01,0.01,0,0,0,0,Jaguar
0.46,0.32,0.18,0.03,0,0,0.01,0,0,0,Jaguar
0.5,0.31,0.05,0.03,0.04,0.03,0.02,0,0.01,0.01,Jaguar
0.22,0.41,0.14,0.07,0.03,0.03,0,0.01,0.02,0.07,Jaguar
0.2,0.31,0.2,0.14,0.09,0.04,0.01,0,0,0.01,Jaguar
0.75,0.16,0.05,0.02,0,0.01,0.01,0,0,0,Jaguar
0.64,0.13,0.09,0.05,0.04,0.03,0.02,0,0,0,Jaguar
0.42,0.3,0.13,0.04,0.04,0.06,0.01,0,0,0,Jaguar
0.43,0.23,0.14,0.08,0.07,0.03,0.01,0,0.01,0,Jaguar
0.4,0.31,0.08,0.08,0.03,0,0.01,0.03,0.03,0.03,Jaguar
0.3,0.18,0.18,0.06,0.1,0.08,0.08,0.02,0,0,Jaguar
0.2,0.23,0.17,0.1,0.06,0.02,0.05,0.07,0.08,0.02,Jaguar
0.62,0.24,0.06,0.03,0.02,0.02,0,0.01,0,0,Jaguar
0.46,0.32,0.14,0.03,0.03,0.01,0.01,0,0,0,Jaguar
0.54,0.2,0.15,0.08,0.02,0,0,0,0.01,0,Jaguar
0.59,0.21,0.09,0.05,0.04,0.01,0.01,0,0,0,Jaguar
0.39,0.27,0.11,0.13,0.09,0,0.01,0,0,0,Jaguar
0.34,0.14,0.11,0.07,0.12,0.09,0.01,0.03,0.04,0.05,Jaguar
0.15,0.31,0.26,0.15,0.07,0.02,0,0.02,0.02,0,Jaguar
0.48,0.21,0.13,0.07,0.01,0.01,0.02,0.04,0.01,0.02,Jaguar
0.49,0.2,0.14,0.04,0.07,0.05,0.01,0,0,0,Jaguar
0.34,0.29,0.17,0.08,0.03,0.02,0.04,0.02,0.01,0,Jaguar
0.54,0.2,0.15,0.08,0.02,0,0,0,0.01,0,Jaguar
0.28,0.19,0.1,0.11,0.09,0.08,0.05,0.02,0.06,0.02,Jaguar
0.33,0.29,0.15,0.11,0.09,0.02,0.01,0,0,0,Jaguar
0.61,0.18,0.07,0.08,0.03,0.01,0.02,0,0,0,Jaguar
0.52,0.29,0.07,0.03,0.06,0.02,0.01,0,0,0,Jaguar
0.19,0.24,0.14,0.16,0.1,0.13,0.04,0,0,0,Jaguar
0.44,0.16,0.13,0.14,0.03,0.02,0.02,0.04,0.02,0,Jaguar
0.32,0.18,0.15,0.13,0.07,0.03,0.02,0,0.03,0.07,Jaguar
0.4,0.26,0.2,0.12,0.01,0,0,0.01,0,0,Jaguar
0.38,0.32,0.16,0.09,0.03,0.01,0.01,0,0,0,Jaguar
0.07,0.24,0.26,0.26,0.12,0.01,0.04,0,0,0,Jaguar
0.76,0.1,0.03,0.05,0.02,0.01,0.01,0.01,0.01,0,Jaguar
0.61,0.25,0.06,0.06,0.01,0,0.01,0,0,0,Jaguar
0.89,0.05,0.02,0.01,0.01,0.01,0,0.01,0,0,Jaguar
0.58,0.13,0.09,0.05,0.04,0.04,0.05,0.02,0,0,Jaguar
0.57,0.17,0.13,0.08,0.05,0,0,0,0,0,Jaguar
0.79,0.12,0.04,0,0.01,0.02,0.01,0,0,0.01,Jaguar
0.4,0.36,0.18,0.02,0.02,0.01,0,0,0,0.01,Jaguar
0.64,0.27,0.05,0.01,0.01,0,0.01,0,0.01,0,Jaguar
0.31,0.31,0.16,0.11,0.05,0.03,0.03,0,0,0,Jaguar
0.35,0.2,0.21,0.19,0.02,0.02,0.01,0,0,0,Leopard
0.28,0.35,0.15,0.1,0.08,0.04,0,0,0,0,Leopard
0.26,0.26,0.22,0.08,0.07,0.05,0.03,0.02,0,0.01,Leopard
0.46,0.27,0.14,0.07,0.02,0.03,0,0,0.01,0,Leopard
0.83,0.14,0.01,0.02,0,0,0,0,0,0,Leopard
0.4,0.26,0.16,0.12,0.05,0.01,0,0,0,0,Leopard
0.83,0.12,0,0,0.02,0.01,0.01,0.01,0,0,Leopard
0.7,0.13,0.07,0.05,0.03,0.01,0,0.01,0,0,Leopard
0.85,0.06,0.02,0.02,0.03,0.01,0,0.01,0,0,Leopard
0.47,0.24,0.19,0.04,0.01,0.02,0.03,0,0,0,Leopard
0.39,0.22,0.19,0.08,0.06,0.02,0.02,0.02,0,0,Leopard
0.62,0.2,0.09,0.08,0.01,0,0,0,0,0,Leopard
0.49,0.37,0.08,0.01,0.02,0.01,0.01,0.01,0,0,Leopard
0.61,0.22,0.09,0.04,0.02,0,0.02,0,0,0,Leopard
0.52,0.31,0.06,0.04,0.03,0.01,0.01,0.02,0,0,Leopard
0.45,0.38,0.1,0.01,0.01,0.01,0.02,0.01,0,0.01,Leopard
0.47,0.26,0.15,0.04,0.01,0.01,0.01,0.03,0.01,0.01,Leopard
0.67,0.15,0.09,0.03,0.01,0.02,0.01,0.01,0.01,0,Leopard
0.55,0.13,0.1,0.05,0.04,0.08,0.04,0.01,0,0,Leopard
0.56,0.21,0.12,0.07,0.02,0,0.01,0.01,0,0,Leopard
0.58,0.29,0.07,0.04,0.01,0,0.01,0,0,0,Leopard
0.35,0.29,0.21,0.11,0.03,0,0,0.01,0,0,Leopard
0.73,0.13,0.05,0.02,0.01,0.02,0.01,0.02,0.01,0,Leopard
0.53,0.27,0.13,0.03,0.02,0.01,0,0,0,0.01,Leopard
0.73,0.22,0.04,0,0.01,0,0,0,0,0,Leopard
0.73,0.14,0.05,0.03,0,0.03,0.01,0,0,0.01,Leopard
0.17,0.08,0.12,0.12,0.07,0.09,0.08,0.07,0.13,0.07,Leopard
0.22,0.35,0.3,0.04,0.04,0.02,0.02,0,0.01,0,Leopard
0.58,0.24,0.12,0.02,0.03,0.01,0,0,0,0,Leopard
0.61,0.18,0.1,0.06,0.01,0.01,0.02,0.01,0,0,Leopard
0.45,0.42,0.1,0.02,0,0,0,0.01,0,0,Leopard
0.19,0.21,0.33,0.09,0.06,0.05,0.04,0.03,0,0,Leopard
0.25,0.27,0.16,0.08,0.08,0.08,0.04,0.03,0.01,0,Leopard
0.45,0.22,0.16,0.09,0.08,0,0,0,0,0,Leopard
0.86,0.08,0.03,0.02,0,0.01,0,0,0,0,Leopard
0.37,0.15,0.17,0.12,0.05,0,0.02,0.02,0.04,0.06,Leopard
0.42,0.25,0.16,0.14,0.01,0.02,0,0,0,0,Leopard
0.41,0.19,0.13,0.13,0.09,0.01,0.02,0,0,0.02,Leopard
0.46,0.33,0.09,0.09,0.02,0,0,0.01,0,0,Leopard
0.17,0.53,0.2,0.06,0.02,0.01,0.01,0,0,0,Leopard
0.72,0.17,0.06,0.03,0.01,0,0,0,0.01,0,Leopard
0.56,0.24,0.13,0.05,0.01,0.01,0,0,0,0,Leopard
0.51,0.27,0.12,0.05,0.01,0.03,0,0.01,0,0,Leopard
0.22,0.22,0.12,0.14,0.03,0.05,0.05,0.13,0.03,0.01,Leopard
0.34,0.24,0.12,0.11,0.08,0.02,0.02,0.02,0.03,0.02,Leopard
0.46,0.27,0.14,0.09,0.02,0,0.01,0.01,0,0,Leopard
0.45,0.2,0.11,0.07,0.05,0.06,0.03,0,0.03,0,Leopard
0.18,0.29,0.25,0.15,0.06,0.05,0.01,0,0,0.01,Leopard
0.57,0.25,0.1,0.04,0.02,0.01,0,0.01,0,0,Leopard
0.56,0.23,0.11,0.05,0.03,0.01,0,0,0.01,0,Leopard
0.74,0.2,0.05,0.01,0,0,0,0,0,0,Leopard
0.08,0.16,0.14,0.12,0.04,0.08,0.09,0.21,0.07,0.01,Leopard
0.45,0.26,0.05,0.11,0.09,0.01,0.03,0,0,0,Leopard
0.35,0.27,0.17,0.13,0.02,0.03,0.01,0,0.02,0,Leopard
0.58,0.24,0.06,0.05,0.02,0.01,0.01,0.01,0.02,0,Leopard
0.8,0.16,0.04,0,0,0,0,0,0,0,Leopard
0.75,0.11,0.08,0.04,0,0.01,0,0,0,0.01,Leopard
0.63,0.18,0.1,0.03,0.03,0.02,0,0,0.01,0,Leopard
0.45,0.18,0.14,0.11,0.07,0.02,0.02,0.01,0,0,Leopard
0.47,0.3,0.09,0.07,0.02,0.01,0.02,0.01,0.01,0,Leopard
0.26,0.16,0.15,0.07,0.08,0.24,0.02,0,0.01,0.01,Leopard
0.56,0.19,0.09,0.04,0.02,0.04,0.04,0.01,0.01,0,Leopard
0.36,0.28,0.2,0.09,0.02,0.04,0.01,0,0,0,Leopard
0.42,0.18,0.18,0.09,0.06,0.02,0.02,0,0.01,0.02,Leopard
0.36,0.32,0.22,0.08,0.01,0.01,0,0,0,0,Leopard
0.4,0.27,0.19,0.02,0.06,0.03,0.03,0,0,0,Leopard
0.4,0.25,0.14,0.09,0.05,0.03,0,0.03,0,0.01,Leopard
0.82,0.14,0.02,0.02,0,0,0,0,0,0,Leopard
0.24,0.38,0.19,0.1,0.06,0.01,0.02,0,0,0,Leopard
0.45,0.33,0.15,0.03,0.03,0,0,0,0.01,0,Leopard
0.71,0.19,0.05,0.03,0,0.01,0.01,0,0,0,Leopard
0.47,0.23,0.11,0.07,0.06,0.02,0.04,0,0,0,Leopard
0.17,0.07,0.08,0.12,0.13,0.13,0.16,0.05,0.06,0.03,Leopard
0.39,0.25,0.13,0.12,0.05,0.03,0,0.02,0,0.01,Leopard
0.72,0.19,0.04,0.02,0,0.01,0.01,0,0.01,0,Leopard
0.51,0.13,0.23,0.05,0.06,0.01,0.01,0,0,0,Leopard
0.34,0.27,0.2,0.08,0.04,0.03,0.02,0.01,0.01,0,Leopard
0.53,0.23,0.1,0.03,0.06,0.04,0.01,0,0,0,Leopard
0.04,0.04,0.32,0.31,0.1,0.1,0.08,0.01,0,0,Leopard
0.37,0.34,0.09,0.08,0.05,0.03,0.03,0.01,0,0,Leopard
0.8,0.14,0.03,0.01,0.01,0,0,0.01,0,0,Leopard
0.47,0.27,0.1,0.08,0.03,0.03,0.02,0,0,0,Leopard
0.19,0.1,0.25,0.27,0.1,0.08,0.01,0,0,0,Leopard
0.65,0.18,0.1,0.06,0,0.01,0,0,0,0,Leopard
0.64,0.21,0.08,0.04,0.01,0.01,0,0.01,0,0,Leopard
0.55,0.2,0.07,0.1,0.03,0.03,0.01,0,0.01,0,Leopard
0.73,0.13,0.06,0.05,0.02,0,0.01,0,0,0,Leopard
0.5,0.21,0.16,0.07,0.04,0.02,0,0,0,0,Leopard
0.52,0.22,0.09,0.11,0.05,0,0.01,0,0,0,Leopard
0.41,0.29,0.14,0.06,0.08,0.01,0.01,0,0,0,Leopard
0.6,0.25,0.08,0.04,0.02,0,0.01,0,0,0,Leopard
0.63,0.22,0.07,0.03,0.04,0.01,0,0,0,0,Leopard
0.44,0.36,0.14,0.05,0.01,0,0,0,0,0,Leopard
0.67,0.23,0.07,0,0.01,0,0.01,0.01,0,0,Leopard
0.41,0.27,0.15,0.09,0.02,0.03,0.03,0,0,0,Leopard
0.3,0.17,0.26,0.18,0.01,0.04,0.02,0.01,0.01,0,Leopard
0.72,0.18,0.06,0.01,0.03,0,0,0,0,0,Leopard
0.32,0.18,0.17,0.14,0.05,0.1,0.03,0.01,0,0,Leopard
0.28,0.22,0.25,0.09,0.08,0.04,0.02,0.01,0.01,0,Leopard
0.26,0.27,0.23,0.13,0.04,0.05,0.02,0,0,0,Leopard
0.48,0.21,0.18,0.09,0.01,0.03,0,0,0,0,Leopard
0.87,0.1,0.01,0.02,0,0,0,0,0,0,Leopard
0.48,0.21,0.09,0.06,0.08,0.07,0.01,0,0,0,Leopard
0.79,0.13,0.07,0.01,0,0,0,0,0,0,Leopard
0.73,0.18,0.07,0.01,0,0,0,0.01,0,0,Leopard
0.31,0.19,0.19,0.12,0.12,0.04,0.03,0,0,0,Leopard
0.41,0.16,0.07,0.06,0.12,0.1,0.07,0,0.01,0,Leopard
0.39,0.27,0.13,0.1,0.06,0.03,0.01,0.01,0,0,Leopard
0.49,0.26,0.15,0.03,0.04,0.02,0,0.01,0,0,Leopard
0.22,0.43,0.16,0.12,0.03,0.02,0,0.01,0.01,0,Leopard
0.37,0.28,0.14,0.09,0.08,0.04,0,0,0,0,Leopard
0.41,0.24,0.18,0.11,0.03,0.02,0.01,0,0,0,Leopard
0.49,0.29,0.05,0.05,0.05,0.04,0.01,0.02,0,0,Lion
0.39,0.29,0.18,0.08,0.04,0.02,0,0,0,0,Lion
0.48,0.28,0.08,0.02,0.05,0.01,0.02,0.03,0.03,0,Lion
0.35,0.22,0.11,0.09,0,0.03,0.01,0.09,0.1,0,Lion
0.17,0.46,0.15,0.1,0.07,0.05,0,0,0,0,Lion
0.46,0.32,0.03,0.05,0.08,0.05,0.01,0,0,0,Lion
0.85,0.13,0.01,0.01,0,0,0,0,0,0,Lion
0.44,0.28,0.12,0.05,0.04,0.02,0.01,0.03,0.01,0,Lion
0.37,0.18,0.11,0.04,0.13,0.08,0.06,0.02,0.01,0,Lion
0.87,0.09,0.02,0,0,0.01,0.01,0,0,0,Lion
0.63,0.14,0.09,0.04,0,0,0,0.04,0.06,0,Lion
0.34,0.22,0.14,0.08,0.08,0.09,0.03,0.01,0,0.01,Lion
0.7,0.14,0.08,0.07,0.01,0,0,0,0,0,Lion
0.23,0.21,0.13,0.29,0.08,0.02,0,0.03,0.01,0,Lion
0.24,0.45,0.21,0.01,0.04,0.04,0.01,0,0,0,Lion
0.38,0.35,0.18,0.07,0.02,0,0,0,0,0,Lion
0.92,0.05,0.01,0,0.01,0,0,0,0.01,0,Lion
0.67,0.15,0.05,0.05,0.03,0.03,0.02,0,0,0,Lion
0.43,0.3,0.14,0.06,0.05,0.02,0,0,0,0,Lion
0.4,0.26,0.21,0.09,0.02,0.01,0.01,0,0,0,Lion
0.15,0.24,0.22,0.13,0.04,0.01,0.03,0.1,0.08,0,Lion
0.46,0.26,0.16,0.05,0.02,0.03,0.02,0,0,0,Lion
0.49,0.26,0.15,0.02,0.03,0.01,0.01,0,0.01,0.02,Lion
0.25,0.34,0.15,0.08,0.06,0.06,0.06,0,0,0,Lion
0.2,0.32,0.23,0.06,0.07,0.04,0.03,0.02,0.02,0.01,Lion
0.68,0.06,0.13,0.05,0.04,0.02,0,0,0.01,0.01,Lion
0.78,0.13,0.03,0.02,0.04,0,0,0,0,0,Lion
0.77,0.13,0.05,0.02,0.01,0.01,0,0,0,0.01,Lion
0.64,0.24,0.06,0.02,0.02,0,0.01,0.01,0,0,Lion
0.59,0.24,0.08,0.06,0.02,0,0,0.01,0,0,Lion
0.22,0.26,0.2,0.1,0.14,0.08,0,0,0,0,Lion
0.68,0.19,0.07,0.04,0.01,0.01,0,0,0,0,Lion
0.43,0.28,0.18,0.07,0.03,0,0.01,0,0,0,Lion
0.21,0.4,0.12,0.11,0.06,0.06,0.01,0.02,0.01,0,Lion
0.62,0.27,0.09,0.01,0,0.01,0,0,0,0,Lion
0.32,0.13,0.09,0.37,0.02,0.03,0.02,0.01,0.01,0,Lion
0.94,0.05,0,0,0,0.01,0,0,0,0,Lion
0.66,0.24,0.07,0,0,0.02,0,0.01,0,0,Lion
0.45,0.28,0.09,0.1,0.06,0.01,0,0,0.01,0,Lion
0.41,0.26,0.12,0.07,0.02,0.02,0.02,0.03,0.03,0.02,Lion
0.25,0.45,0.16,0.05,0.05,0.02,0.01,0.01,0,0,Lion
0.76,0.16,0.05,0.01,0,0.02,0,0,0,0,Lion
0.63,0.2,0.05,0.03,0.03,0.01,0.04,0,0.01,0,Lion
0.53,0.21,0.14,0.03,0.04,0.03,0.01,0,0.01,0,Lion
0.73,0.25,0.01,0,0.01,0,0,0,0,0,Lion
0.49,0.26,0.11,0.03,0.04,0.04,0,0,0.02,0.01,Lion
0.57,0.23,0.13,0.04,0.01,0,0,0.01,0.01,0,Lion
0.35,0.26,0.22,0.08,0.06,0.01,0.01,0.01,0,0,Lion
0.44,0.26,0.14,0.05,0.06,0.04,0.01,0,0,0,Lion
0.26,0.32,0.17,0.13,0.06,0.01,0.02,0.02,0.01,0,Lion
0.68,0.2,0.05,0.04,0.01,0.01,0,0.01,0,0,Lion
0.43,0.17,0.16,0.15,0.05,0.02,0,0.01,0.01,0,Lion
0.49,0.3,0.13,0.06,0.01,0.01,0,0,0,0,Lion
0.73,0.16,0.05,0.04,0,0.02,0,0,0,0,Lion
0.25,0.2,0.02,0.05,0.03,0.06,0.11,0.18,0.08,0.02,Lion
0.55,0.2,0.17,0.01,0.04,0.03,0,0,0,0,Lion
0.88,0.08,0.01,0.01,0.01,0,0,0,0,0.01,Lion
0.58,0.23,0.07,0.04,0.04,0,0.03,0,0,0.01,Lion
0.89,0.04,0.02,0.02,0.01,0,0.01,0,0.01,0,Lion
0.72,0.18,0.06,0.02,0.01,0,0,0.01,0,0,Lion
0.44,0.15,0.06,0.09,0.05,0.03,0.05,0.06,0.06,0.01,Lion
0.43,0.25,0.16,0.08,0.04,0.01,0.01,0.02,0,0,Lion
0.61,0.27,0.03,0.02,0.03,0.01,0.01,0.02,0,0,Lion
0.32,0.26,0.22,0.14,0.04,0,0.01,0.01,0,0,Lion
0.63,0.3,0.05,0.01,0,0,0,0.01,0,0,Lion
0.24,0.38,0.1,0.09,0.03,0.08,0.03,0.03,0.02,0,Lion
0.17,0.26,0.2,0.21,0.07,0.04,0.02,0.02,0.01,0,Lion
0.41,0.23,0.2,0.09,0.04,0.02,0,0.01,0,0,Lion
0.22,0.14,0.1,0.07,0.09,0.09,0.09,0.07,0.09,0.04,Lion
0.8,0.09,0.04,0.01,0.03,0,0,0,0.02,0.01,Lion
0.34,0.2,0.09,0.11,0.06,0.08,0.02,0.02,0.04,0.04,Lion
0.34,0.36,0.2,0.05,0.03,0,0.02,0,0,0,Lion
0.22,0.23,0.21,0.16,0.09,0.05,0.04,0,0,0,Lion
0.39,0.23,0.23,0.1,0.02,0.01,0.01,0.01,0,0,Lion
0.3,0.32,0.22,0.1,0.03,0,0.01,0.02,0,0,Lion
0.18,0.14,0.15,0.23,0.11,0.11,0.04,0.03,0,0.01,Lion
0.49,0.23,0.07,0.09,0.04,0.04,0.01,0,0.02,0.01,Lion
0.54,0.16,0.09,0.08,0.06,0.03,0.03,0.01,0,0,Lion
0.31,0.34,0.24,0.03,0.02,0.01,0.02,0.01,0.01,0.01,Lion
0.33,0.28,0.13,0.06,0.08,0.08,0.01,0.01,0.01,0.01,Lion
0.47,0.33,0.12,0.02,0.05,0,0.01,0,0,0,Lion
0.91,0.03,0.03,0.01,0,0.01,0,0,0.01,0,Lion
0.65,0.14,0.11,0.02,0.04,0.03,0.01,0,0,0,Lion
0.57,0.14,0.06,0.05,0.08,0.08,0,0.02,0,0,Lion
0.66,0.13,0.1,0.05,0.05,0,0.01,0,0,0,Lion
0.86,0.07,0.03,0.03,0,0,0.01,0,0,0,Lion
0.75,0.13,0.05,0.02,0.03,0.01,0.01,0,0,0,Lion
0.53,0.17,0.13,0.07,0.02,0.02,0.01,0,0.02,0.03,Lion
0.5,0.2,0.18,0.04,0.04,0.01,0.02,0,0,0.01,Lion
0.25,0.34,0.19,0.1,0.08,0.02,0.02,0,0,0,Lion
0.67,0.16,0.05,0.03,0.02,0.03,0.03,0.01,0,0,Lion
0.4,0.28,0.12,0.08,0.07,0.03,0.01,0,0.01,0,Lion
0.9,0,0,0.02,0.02,0.01,0.02,0.03,0,0,Lion
0.73,0.1,0.06,0.04,0.04,0,0.03,0,0,0,Lion
0.73,0.19,0.02,0.02,0.01,0,0,0.01,0.02,0,Lion
0.39,0.23,0.16,0.05,0.07,0.07,0.02,0,0.01,0,Lion
0.45,0.08,0.13,0.19,0.05,0.03,0.05,0.02,0,0,Lion
0.26,0.17,0.12,0.13,0.1,0.13,0.07,0.02,0,0,Lion
0.88,0.06,0.01,0.01,0.03,0,0,0.01,0,0,Lion
0.81,0.11,0.02,0.01,0.02,0.01,0.02,0,0,0,Lion
0.87,0.1,0.02,0.01,0,0,0,0,0,0,Lion
0.1,0.21,0.25,0.16,0.09,0.06,0.05,0.05,0.02,0.01,Lion
0.42,0.35,0.08,0.04,0,0.01,0,0.01,0.05,0.04,Lion
0.39,0.2,0.13,0.13,0.09,0.03,0.02,0,0,0.01,Lion
0.77,0.09,0.03,0.02,0.02,0,0.03,0.02,0.01,0.01,'Long-whiskered Catfish'
0.78,0.15,0.02,0,0.01,0.02,0.01,0.01,0,0,'Long-whiskered Catfish'
0.55,0.24,0.03,0.05,0.06,0.02,0.02,0.01,0.02,0,'Long-whiskered Catfish'
0.67,0.24,0.04,0.01,0,0.02,0,0.01,0.01,0,'Long-whiskered Catfish'
0.62,0.21,0.07,0.04,0.01,0,0.02,0.02,0.01,0,'Long-whiskered Catfish'
0.84,0.11,0.01,0.01,0.02,0,0,0,0.01,0,'Long-whiskered Catfish'
0.85,0.04,0.02,0,0.03,0.01,0,0.03,0.01,0.01,'Long-whiskered Catfish'
0.57,0.28,0.05,0.01,0.01,0.02,0.02,0.02,0.01,0.01,'Long-whiskered Catfish'
0.6,0.25,0.03,0.03,0.03,0.01,0.03,0.01,0.01,0,'Long-whiskered Catfish'
0.7,0.15,0.07,0.04,0.01,0.01,0,0.01,0,0.01,'Long-whiskered Catfish'
0.89,0.05,0,0.01,0.02,0.02,0.01,0,0,0,'Long-whiskered Catfish'
0.77,0.08,0.06,0.03,0.02,0.02,0.02,0,0,0,'Long-whiskered Catfish'
0.79,0.09,0.1,0,0.02,0,0,0,0,0,'Long-whiskered Catfish'
0.74,0.13,0.03,0.02,0.02,0,0,0.02,0.01,0.03,'Long-whiskered Catfish'
0.74,0.17,0.03,0.01,0.02,0.01,0.02,0,0,0,'Long-whiskered Catfish'
0.39,0.41,0.13,0.02,0.02,0,0.03,0,0,0,'Long-whiskered Catfish'
0.84,0.04,0.03,0.01,0.02,0.03,0.02,0,0.01,0,'Long-whiskered Catfish'
0.83,0.04,0.02,0.03,0.01,0.02,0.01,0.01,0.03,0,'Long-whiskered Catfish'
0.76,0.09,0.07,0.03,0.02,0.01,0,0.01,0.01,0,'Long-whiskered Catfish'
0.85,0.07,0.04,0.04,0,0,0,0,0,0,'Long-whiskered Catfish'
0.82,0.05,0.03,0.02,0.03,0.02,0.01,0.01,0,0.01,'Long-whiskered Catfish'
0.82,0.07,0.02,0.02,0.02,0.03,0.01,0,0.01,0,'Long-whiskered Catfish'
0.76,0.11,0.04,0.02,0.01,0.02,0.03,0.01,0,0,'Long-whiskered Catfish'
0.4,0.37,0.05,0.05,0.03,0.01,0.04,0.02,0.02,0.01,'Long-whiskered Catfish'
0.8,0.07,0.02,0.03,0.01,0.02,0.01,0.01,0.02,0.01,'Long-whiskered Catfish'
0.78,0.13,0.02,0.01,0.02,0.01,0,0.01,0.01,0.01,'Long-whiskered Catfish'
0.73,0.2,0.01,0.02,0,0,0,0.02,0.01,0.01,'Long-whiskered Catfish'
0.51,0.25,0.14,0.03,0.02,0.02,0.01,0,0.01,0.01,'Long-whiskered Catfish'
0.85,0.06,0.02,0.04,0.01,0.01,0,0.01,0,0,'Long-whiskered Catfish'
0.84,0.04,0.04,0.04,0.02,0,0,0.02,0,0,'Long-whiskered Catfish'
0.84,0.08,0.02,0.02,0.02,0.01,0,0.01,0,0,'Long-whiskered Catfish'
0.7,0.1,0.07,0.03,0.04,0.03,0.02,0,0,0.01,'Long-whiskered Catfish'
0.72,0.13,0.06,0.02,0.02,0.01,0.01,0.03,0,0,'Long-whiskered Catfish'
0.83,0.06,0.04,0,0.02,0.03,0.01,0.01,0,0,'Long-whiskered Catfish'
0.81,0.08,0.02,0.01,0.01,0.02,0.01,0.03,0,0.01,'Long-whiskered Catfish'
0.77,0.07,0.05,0.03,0.01,0.02,0.01,0,0.02,0.02,'Long-whiskered Catfish'
0.67,0.17,0.03,0.04,0.05,0.03,0,0,0.01,0,'Long-whiskered Catfish'
0.7,0.2,0.04,0,0.03,0,0.01,0.02,0,0,'Long-whiskered Catfish'
0.79,0.1,0.06,0.04,0,0,0,0,0.01,0,'Long-whiskered Catfish'
0.71,0.15,0.1,0.01,0.02,0.01,0,0,0,0,'Long-whiskered Catfish'
0.72,0.19,0.03,0.04,0.01,0.01,0,0,0,0,'Long-whiskered Catfish'
0.83,0.1,0.01,0.01,0.02,0.01,0,0,0.02,0,'Long-whiskered Catfish'
0.82,0.08,0.05,0.02,0.01,0.01,0.01,0,0,0,'Long-whiskered Catfish'
0.52,0.29,0.05,0.05,0.03,0.01,0.01,0,0.03,0.01,'Long-whiskered Catfish'
0.57,0.25,0.04,0.04,0.03,0.02,0.03,0,0.02,0,'Long-whiskered Catfish'
0.82,0.06,0.03,0.02,0.01,0.01,0.02,0.01,0.01,0.01,'Long-whiskered Catfish'
0.69,0.21,0.02,0.02,0.01,0,0.04,0.01,0,0,'Long-whiskered Catfish'
0.69,0.17,0.04,0.02,0.01,0.02,0.01,0.03,0.01,0,'Long-whiskered Catfish'
0.69,0.14,0.02,0.03,0.07,0.02,0.01,0.01,0,0.01,'Long-whiskered Catfish'
0.84,0.04,0.03,0.02,0.02,0,0.02,0.03,0,0,'Long-whiskered Catfish'
0.86,0.06,0.02,0.04,0.01,0.01,0,0,0,0,'Long-whiskered Catfish'
0.87,0.04,0.01,0.02,0.01,0.03,0,0.01,0.01,0,'Long-whiskered Catfish'
0.85,0.04,0.02,0.04,0.02,0.01,0,0.02,0,0,'Long-whiskered Catfish'
0.73,0.12,0.02,0.05,0.02,0.02,0.01,0.01,0.02,0,'Long-whiskered Catfish'
0.81,0.05,0.07,0.03,0.03,0.01,0,0,0,0,'Long-whiskered Catfish'
0.79,0.05,0.05,0.02,0.03,0.01,0.03,0,0.02,0,'Long-whiskered Catfish'
0.88,0.02,0.03,0,0.01,0.01,0.01,0.03,0.01,0,'Long-whiskered Catfish'
0.74,0.09,0.03,0.02,0.04,0.02,0.01,0.01,0.02,0.02,'Long-whiskered Catfish'
0.76,0.06,0.04,0.05,0.04,0.01,0,0.03,0.01,0,'Long-whiskered Catfish'
0.87,0.04,0.02,0.01,0.02,0.03,0,0.01,0,0,'Long-whiskered Catfish'
0.74,0.14,0.05,0.01,0.01,0.03,0.01,0,0,0.01,'Long-whiskered Catfish'
0.35,0.21,0.25,0.11,0.03,0.04,0,0,0.01,0,'Lucifer Chicken'
0.61,0.18,0.08,0.03,0.03,0.01,0.02,0.03,0.01,0,'Lucifer Chicken'
0.44,0.29,0.15,0.07,0.01,0.02,0.01,0,0.01,0,'Lucifer Chicken'
0.48,0.31,0.06,0.06,0.06,0.01,0,0.01,0,0.01,'Lucifer Chicken'
0.81,0.07,0.06,0.04,0,0.01,0,0.01,0,0,'Lucifer Chicken'
0.9,0.08,0.01,0,0,0,0.01,0,0,0,'Lucifer Chicken'
0.8,0.14,0.05,0,0,0,0,0.01,0,0,'Lucifer Chicken'
0.7,0.27,0.01,0.01,0,0,0.01,0,0,0,'Lucifer Chicken'
0.69,0.24,0.05,0.01,0,0,0,0,0.01,0,'Lucifer Chicken'
0.98,0,0,0.01,0,0,0,0.01,0,0,'Lucifer Chicken'
0.95,0.02,0,0,0.01,0,0,0.01,0,0.01,'Lucifer Chicken'
0.28,0.29,0.2,0.08,0.09,0.03,0.02,0,0.01,0,'Lucifer Chicken'
0.34,0.32,0.09,0.16,0.04,0.03,0,0.01,0,0.01,'Lucifer Chicken'
0.35,0.28,0.17,0.12,0.03,0.03,0,0.01,0.01,0,'Lucifer Chicken'
0.34,0.3,0.15,0.11,0.03,0.05,0,0.02,0,0,'Lucifer Chicken'
0.33,0.28,0.11,0.12,0.06,0.07,0.02,0.01,0,0,'Lucifer Chicken'
0.28,0.38,0.24,0.09,0.01,0,0,0,0,0,'Lucifer Chicken'
0.74,0.18,0.02,0,0.01,0.01,0,0.01,0.03,0,'Lucifer Chicken'
0.7,0.19,0.04,0.02,0,0.01,0.02,0.01,0.01,0,'Lucifer Chicken'
0.65,0.23,0.09,0.01,0,0.01,0.01,0,0,0,'Lucifer Chicken'
0.56,0.25,0.12,0.01,0,0,0.02,0.02,0.02,0,'Lucifer Chicken'
0.26,0.46,0.07,0.01,0.06,0.01,0.02,0.06,0.04,0.01,'Lucifer Chicken'
0.42,0.36,0.04,0.03,0.02,0.03,0.03,0.03,0.03,0.01,'Lucifer Chicken'
0.45,0.35,0.14,0.04,0,0.02,0,0,0,0,'Lucifer Chicken'
0.62,0.19,0.05,0.02,0.02,0.04,0.04,0,0.02,0,'Lucifer Chicken'
0.59,0.27,0.03,0.05,0.01,0.02,0.02,0.01,0,0,'Lucifer Chicken'
0.56,0.29,0.06,0.04,0.01,0.03,0,0,0.01,0,'Lucifer Chicken'
0.41,0.36,0.04,0.02,0.04,0.06,0.03,0.02,0.02,0,'Lucifer Chicken'
0.76,0.2,0.02,0.02,0,0,0,0,0,0,'Lucifer Chicken'
0.59,0.2,0.14,0.04,0.02,0,0,0.01,0,0,'Lucifer Chicken'
0.65,0.13,0.1,0.09,0.02,0,0,0.01,0,0,'Lucifer Chicken'
0.64,0.11,0.08,0.1,0.03,0.02,0,0.01,0.01,0,'Lucifer Chicken'
0.66,0.22,0.06,0.02,0.03,0.01,0,0,0,0,'Lucifer Chicken'
0.39,0.26,0.21,0.07,0.03,0,0.01,0.03,0,0,'Lucifer Chicken'
0.36,0.33,0.18,0.08,0.03,0.01,0,0.01,0,0,'Lucifer Chicken'
0.54,0.27,0.08,0.04,0.03,0.01,0.01,0.01,0.01,0,'Lucifer Chicken'
0.55,0.27,0.05,0.04,0.04,0.01,0.02,0.01,0.01,0,'Lucifer Chicken'
0.58,0.24,0.04,0.02,0.04,0.02,0.02,0.03,0.01,0,'Lucifer Chicken'
0.43,0.26,0.08,0.11,0.06,0.03,0.01,0.01,0.01,0,'Lucifer Chicken'
0.25,0.27,0.24,0.13,0.09,0,0.01,0,0.01,0,'Lucifer Chicken'
0.32,0.34,0.16,0.1,0.06,0,0,0.01,0.01,0,'Lucifer Chicken'
0.62,0.16,0.04,0.05,0.06,0.05,0,0.02,0,0,'Lucifer Chicken'
0.51,0.23,0.05,0.05,0.12,0.02,0.02,0,0,0,'Lucifer Chicken'
0.41,0.2,0.33,0.01,0.01,0,0.01,0.01,0.02,0,'Lucifer Chicken'
0.44,0.2,0.07,0.14,0.12,0.02,0,0.01,0,0,'Lucifer Chicken'
0.61,0.29,0.05,0.01,0,0.01,0.01,0.01,0,0.01,'Lucifer Chicken'
0.48,0.16,0.09,0.13,0.1,0.03,0,0.01,0,0,'Lucifer Chicken'
0.41,0.28,0.09,0.11,0.04,0.05,0.01,0.01,0,0,'Lucifer Chicken'
0.73,0.1,0.07,0.06,0.01,0.01,0,0,0.01,0.01,'Lucifer Chicken'
0.78,0.15,0.03,0.01,0.01,0,0.01,0,0.01,0,'Lucifer Chicken'
0.74,0.14,0.05,0.02,0.03,0,0,0.01,0.01,0,'Lucifer Chicken'
0.76,0.1,0.07,0.03,0.02,0,0,0.01,0.01,0,'Lucifer Chicken'
0.87,0.09,0.03,0,0,0.01,0,0,0,0,'Lucifer Chicken'
0.42,0.28,0.12,0.13,0.05,0,0,0,0,0,'Lucifer Chicken'
0.38,0.25,0.15,0.03,0.07,0.03,0.05,0.04,0,0,'Lucifer Chicken'
0.42,0.25,0.16,0.04,0.04,0.03,0.05,0.01,0,0,'Lucifer Chicken'
0.67,0.15,0.05,0.06,0.02,0,0.01,0,0.03,0.01,'Lucifer Chicken'
0.43,0.2,0.18,0.1,0.07,0.02,0,0,0,0,'Lucifer Chicken'
0.64,0.13,0.09,0.06,0.02,0.02,0.01,0.01,0.02,0,'Lucifer Chicken'
0.4,0.23,0.06,0.09,0.04,0.08,0.06,0.02,0.02,0,'Lucifer Chicken'
0.62,0.19,0.09,0.04,0.03,0.01,0.02,0,0,0,'Lucifer Chicken'
0.65,0.17,0.08,0.04,0.05,0.01,0,0,0,0,'Lucifer Chicken'
0.48,0.33,0.08,0.08,0.01,0.01,0.01,0,0,0,'Lucifer Chicken'
0.84,0.11,0.05,0,0,0,0,0,0,0,'Lucifer Chicken'
0.88,0.09,0.02,0.01,0,0,0,0,0,0,'Lucifer Chicken'
0.58,0.16,0.16,0.01,0.01,0.02,0.01,0.03,0.02,0,'Lucifer Chicken'
0.62,0.15,0.13,0.05,0.01,0,0.02,0.02,0,0,'Lucifer Chicken'
0.56,0.22,0.08,0.08,0.03,0.01,0.01,0.01,0,0,'Lucifer Chicken'
0.49,0.21,0.2,0.03,0.04,0.02,0.01,0,0,0,'Lucifer Chicken'
0.56,0.26,0.09,0.02,0.02,0.04,0,0.01,0,0,'Lucifer Chicken'
0.61,0.21,0.08,0.02,0.03,0.01,0.03,0.01,0,0,'Lucifer Chicken'
0.56,0.23,0.07,0.01,0.04,0,0.04,0.03,0.02,0,'Lucifer Chicken'
0.51,0.25,0.08,0.02,0.02,0.05,0.03,0.02,0.02,0,'Lucifer Chicken'
0.47,0.33,0.16,0.03,0.01,0,0,0,0,0,'Lucifer Chicken'
0.52,0.21,0.13,0.01,0.04,0.05,0.03,0,0.01,0,'Lucifer Chicken'
0.62,0.18,0.12,0.04,0.01,0,0.01,0.01,0,0.01,'Lucifer Chicken'
0.55,0.14,0.08,0.08,0.04,0.05,0.05,0,0.01,0,'Lucifer Chicken'
0.57,0.16,0.07,0.09,0.02,0.03,0.03,0.03,0,0,'Lucifer Chicken'
0.44,0.17,0.09,0.11,0.11,0.05,0.01,0.01,0,0.01,'Lucifer Chicken'
0.43,0.18,0.09,0.12,0.09,0.06,0.03,0,0,0,'Lucifer Chicken'
0.73,0.2,0.02,0,0.01,0.02,0.01,0.01,0,0,'Lucifer Chicken'
0.78,0.12,0.02,0.03,0,0.01,0.02,0,0.01,0.01,'Lucifer Chicken'
0.61,0.24,0.04,0.01,0.02,0.02,0.01,0.02,0.02,0.01,'Lucifer Chicken'
0.54,0.19,0.16,0.06,0.03,0.01,0,0,0.01,0,'Lucifer Chicken'
0.52,0.22,0.08,0.07,0.05,0.04,0.02,0,0,0,'Lucifer Chicken'
0.6,0.3,0.05,0.01,0,0.01,0.02,0.01,0,0,'Lucifer Chicken'
0.62,0.21,0.14,0.02,0,0.01,0,0,0,0,'Lucifer Chicken'
0.74,0.19,0.03,0.01,0.01,0.01,0.01,0,0,0,'Lucifer Chicken'
0.65,0.18,0.08,0.07,0.01,0,0,0,0,0.01,'Lucifer Chicken'
0.55,0.27,0.1,0.05,0.01,0,0,0.01,0.01,0,'Lucifer Chicken'
0.6,0.31,0.05,0.02,0,0.02,0,0,0,0,'Lucifer Chicken'
0.7,0.21,0.05,0.03,0,0.01,0,0,0,0,'Lucifer Chicken'
0.55,0.32,0.07,0.02,0,0.01,0,0,0.03,0,'Lucifer Chicken'
0.43,0.28,0.11,0.07,0.01,0.04,0.01,0.01,0.04,0,'Lucifer Chicken'
0.63,0.21,0.05,0.01,0.05,0.02,0.01,0.01,0,0.01,'Lucifer Chicken'
0.75,0.09,0.06,0.06,0.01,0.01,0.01,0.01,0,0,'Lucifer Chicken'
0.34,0.36,0.12,0.07,0.07,0.02,0.02,0,0,0,'Lucifer Chicken'
0.47,0.2,0.19,0.06,0.04,0,0.01,0.02,0.01,0,'Lucifer Chicken'
0.42,0.22,0.22,0.04,0.02,0,0.02,0.02,0.03,0.01,'Lucifer Chicken'
0.59,0.21,0.14,0.01,0,0.01,0.01,0,0.02,0.01,'Lucifer Chicken'
0.59,0.28,0.05,0,0.02,0.01,0.01,0.02,0.02,0,'Lucifer Chicken'
0.67,0.18,0.05,0.03,0.03,0.02,0.01,0.01,0,0,'Lucifer Chicken'
0.47,0.22,0.09,0.04,0.05,0.03,0.05,0.03,0.02,0,'Lucifer Chicken'
0.47,0.25,0.11,0.03,0.03,0.04,0.03,0.02,0.02,0,'Lucifer Chicken'
0.56,0.2,0.05,0.02,0.05,0.06,0.03,0.03,0,0,'Lucifer Chicken'
0.62,0.22,0.04,0.02,0.03,0.01,0.04,0.02,0,0,'Lucifer Chicken'
0.87,0.08,0.02,0.02,0,0,0,0.01,0,0,'Lucifer Chicken'
0.66,0.12,0.07,0.03,0.06,0.06,0,0,0,0,'Lucifer Chicken'
0.58,0.17,0.08,0.07,0.04,0.04,0.01,0.01,0,0,'Lucifer Chicken'
0.65,0.19,0.04,0.01,0.04,0.01,0.02,0.01,0.03,0,'Lucifer Chicken'
0.71,0.17,0.03,0.01,0.02,0,0.02,0,0.02,0.02,'Lucifer Chicken'
0.39,0.2,0.3,0.06,0,0.01,0.02,0.02,0,0,'Lucifer Chicken'
0.42,0.17,0.27,0.1,0.01,0.01,0.01,0,0,0.01,'Lucifer Chicken'
0.33,0.18,0.14,0.18,0.09,0.05,0.02,0.01,0,0,'Lucifer Chicken'
0.72,0.15,0.04,0.04,0.01,0,0.02,0.01,0.01,0,'Lucifer Chicken'
0.49,0.2,0.17,0.1,0,0.01,0.02,0.01,0,0,'Lucifer Chicken'
0.38,0.21,0.09,0.05,0.06,0.05,0.08,0.07,0.01,0,'Lucifer Chicken'
0.36,0.26,0.13,0.1,0.1,0.03,0.02,0,0,0,'Lucifer Chicken'
0.33,0.2,0.18,0.06,0.15,0.06,0.01,0,0.01,0,'Lucifer Chicken'
0.63,0.2,0.03,0.04,0.02,0.03,0,0.03,0.02,0,'Lucifer Chicken'
0.83,0.07,0.01,0.01,0.02,0.04,0.01,0,0.01,0,'Lucifer Chicken'
0.66,0.22,0.06,0.02,0.01,0.01,0.01,0,0.01,0,'Lucifer Chicken'
0.43,0.17,0.1,0.05,0.1,0.05,0.07,0.01,0.01,0.01,'Lucifer Chicken'
0.57,0.24,0.07,0.02,0.02,0.01,0.05,0.01,0.01,0,'Lucifer Chicken'
0.51,0.17,0.09,0.08,0.05,0.04,0.03,0.02,0.01,0,'Lucifer Chicken'
0.46,0.34,0.09,0.02,0.01,0.03,0.01,0.02,0.01,0.01,'Lucifer Chicken'
0.53,0.25,0.13,0.02,0.02,0.01,0,0.03,0.01,0,'Lucifer Chicken'
0.68,0.23,0.05,0.01,0.01,0.01,0,0.01,0,0,'Lucifer Chicken'
0.09,0.24,0.29,0.27,0.07,0.01,0.02,0.01,0,0,'Lucifer Chicken'
0.67,0.23,0.05,0,0.02,0.01,0.01,0,0.01,0,'Lucifer Chicken'
0.55,0.17,0.15,0.03,0.07,0.03,0,0,0,0,'Lucifer Chicken'
0.4,0.25,0.15,0.05,0.01,0.08,0.04,0.01,0.01,0,'Lucifer Chicken'
0.61,0.16,0.09,0.03,0.03,0.01,0.03,0.03,0.01,0,'Lucifer Chicken'
0.51,0.22,0.15,0.02,0.02,0.01,0.04,0.03,0,0,'Lucifer Chicken'
0.81,0.12,0,0,0.01,0.01,0.02,0.02,0.01,0,'Lucifer Chicken'
0.72,0.19,0.04,0.01,0.02,0,0.01,0.01,0,0,'Lucifer Chicken'
0.45,0.15,0.14,0.09,0.09,0.04,0.02,0.02,0,0,'Lucifer Chicken'
0.41,0.15,0.14,0.13,0.08,0.05,0.01,0.02,0.01,0,'Lucifer Chicken'
0.3,0.41,0.09,0.12,0.06,0.01,0,0.01,0,0,'Lucifer Chicken'
0.3,0.19,0.21,0.1,0.06,0.06,0.04,0.02,0.01,0.01,'Lucifer Chicken'
0.3,0.07,0.13,0.11,0.11,0.13,0.11,0.01,0.03,0,'Lucifer Chicken'
0.43,0.23,0.1,0.09,0.1,0.03,0.02,0,0,0,'Lucifer Chicken'
0.68,0.19,0.11,0.02,0,0,0,0,0,0,'Lucifer Chicken'
0.39,0.22,0.18,0.09,0.07,0.04,0,0,0.01,0,'Lucifer Chicken'
0.34,0.33,0.16,0.07,0.07,0.01,0,0.01,0,0.01,'Lucifer Chicken'
0.35,0.24,0.14,0.09,0.1,0.04,0.03,0,0.01,0,'Lucifer Chicken'
0.81,0.13,0.04,0.01,0,0,0,0.01,0,0,'Lucifer Chicken'
0.72,0.26,0.01,0,0,0,0,0.01,0,0,'Lucifer Chicken'
0.46,0.29,0.13,0.05,0.03,0.01,0.02,0.01,0,0,'Lucifer Chicken'
0.49,0.37,0.11,0,0.01,0.01,0.01,0,0,0,'Lucifer Chicken'
0.32,0.31,0.12,0.13,0.02,0.03,0.03,0.02,0.02,0,'Snow leopard'
0.41,0.2,0.14,0.09,0.1,0.05,0.01,0,0,0,'Snow leopard'
0.59,0.23,0.04,0.03,0.02,0.02,0.02,0.03,0.01,0.01,'Snow leopard'
0.6,0.28,0.07,0.03,0,0.02,0,0,0,0,'Snow leopard'
0.26,0.25,0.16,0.07,0.1,0.08,0.03,0.02,0.02,0.01,'Snow leopard'
0.51,0.22,0.13,0.06,0.03,0.02,0.01,0.01,0.01,0,'Snow leopard'
0.65,0.25,0.05,0.03,0.02,0,0,0,0,0,'Snow leopard'
0.56,0.22,0.14,0.07,0,0,0.01,0,0,0,'Snow leopard'
0.39,0.42,0.07,0.04,0.04,0.03,0,0,0,0.01,'Snow leopard'
0.61,0.17,0.11,0.04,0.03,0.02,0.02,0,0,0,'Snow leopard'
0.56,0.25,0.09,0.04,0.02,0.02,0.02,0,0,0,'Snow leopard'
0.48,0.33,0.11,0.02,0.03,0.02,0.01,0,0,0,'Snow leopard'
0.22,0.2,0.17,0.14,0.07,0.07,0.06,0.05,0.01,0.01,'Snow leopard'
0.78,0.07,0.06,0.02,0.03,0.04,0,0,0,0,'Snow leopard'
0.29,0.25,0.23,0.13,0.02,0.02,0.03,0.03,0,0,'Snow leopard'
0.48,0.23,0.11,0.06,0.05,0.02,0.03,0.01,0.01,0,'Snow leopard'
0.25,0.51,0.1,0.02,0.03,0.04,0.02,0.02,0.01,0,'Snow leopard'
0.33,0.16,0.08,0.07,0.12,0.22,0.01,0.01,0,0,'Snow leopard'
0.4,0.25,0.1,0.1,0.09,0.02,0.02,0.02,0,0,'Snow leopard'
0.79,0.15,0.03,0.02,0,0,0.01,0,0,0,'Snow leopard'
0.83,0.1,0.05,0.01,0.01,0,0,0,0,0,'Snow leopard'
0.45,0.19,0.13,0.09,0.09,0.02,0.02,0.01,0,0,'Snow leopard'
0.36,0.21,0.19,0.11,0.03,0.03,0.04,0.01,0.01,0.01,'Snow leopard'
0.22,0.16,0.26,0.17,0.09,0.06,0.02,0.01,0.01,0,'Snow leopard'
0.68,0.14,0.11,0.04,0,0.01,0.01,0,0.01,0,'Snow leopard'
0.61,0.17,0.13,0.03,0.06,0,0,0,0,0,'Snow leopard'
0.53,0.25,0.1,0.11,0,0.01,0,0,0,0,'Snow leopard'
0.53,0.26,0.18,0,0,0,0.01,0.01,0.01,0,'Snow leopard'
0.56,0.21,0.05,0.07,0.08,0.03,0,0,0,0,'Snow leopard'
0.39,0.2,0.1,0.09,0.13,0.03,0.04,0.02,0,0,'Snow leopard'
0.48,0.19,0.13,0.12,0.03,0.02,0.02,0.01,0,0,'Snow leopard'
0.56,0.25,0.11,0.05,0,0.02,0.01,0,0,0,'Snow leopard'
0.86,0.07,0.03,0.02,0,0.01,0,0.01,0,0,'Snow leopard'
0.23,0.19,0.2,0.17,0.14,0.03,0.02,0.02,0,0,'Snow leopard'
0.42,0.33,0.13,0.01,0.02,0.03,0.05,0.01,0,0,'Snow leopard'
0.62,0.22,0.05,0.05,0.03,0.02,0,0.01,0,0,'Snow leopard'
0.67,0.11,0.1,0.07,0.03,0.01,0,0.01,0,0,'Snow leopard'
0.65,0.16,0.1,0.02,0.02,0.02,0.02,0.01,0,0,'Snow leopard'
0.92,0.02,0.03,0.01,0.02,0,0,0,0,0,'Snow leopard'
0.66,0.11,0.06,0.04,0.04,0.01,0.03,0.05,0,0,'Snow leopard'
0.58,0.24,0.11,0.03,0.02,0.01,0,0.01,0,0,'Snow leopard'
0.69,0.18,0.08,0.01,0.01,0.02,0.01,0,0,0,'Snow leopard'
0.75,0.2,0.02,0.01,0.01,0,0,0.01,0,0,'Snow leopard'
0.5,0.17,0.11,0.1,0.04,0.08,0,0,0,0,'Snow leopard'
0.35,0.23,0.16,0.12,0.06,0.06,0.01,0.01,0,0,'Snow leopard'
0.43,0.31,0.14,0.04,0.03,0.02,0.01,0.02,0,0,'Snow leopard'
0.49,0.26,0.14,0.05,0.02,0,0.02,0.01,0.01,0,'Snow leopard'
0.42,0.34,0.15,0.04,0.03,0.01,0.01,0,0,0,'Snow leopard'
0.39,0.25,0.18,0.09,0.07,0.02,0,0,0,0,'Snow leopard'
0.84,0.09,0.02,0.03,0,0,0.02,0,0,0,'Snow leopard'
0.44,0.19,0.16,0.1,0.03,0.02,0.05,0.01,0,0,'Snow leopard'
0.45,0.25,0.14,0.06,0.02,0.01,0.02,0.02,0.02,0.01,'Snow leopard'
0.6,0.24,0.06,0.03,0.02,0.01,0.02,0.01,0.01,0,'Snow leopard'
0.56,0.33,0.1,0.01,0,0,0,0,0,0,'Snow leopard'
0.17,0.19,0.19,0.14,0.1,0.07,0.1,0.02,0.02,0,'Snow leopard'
0.53,0.31,0.12,0,0.03,0,0,0,0.01,0,'Snow leopard'
0.53,0.16,0.11,0.07,0.05,0.05,0.01,0.02,0,0,'Snow leopard'
0.65,0.23,0.02,0.03,0.01,0.02,0.03,0.01,0,0,'Snow leopard'
0.44,0.29,0.13,0.06,0.01,0.03,0.01,0.02,0,0.01,'Snow leopard'
0.64,0.19,0.03,0.04,0.05,0.02,0.02,0.01,0,0,'Snow leopard'
0.51,0.18,0.1,0.06,0.06,0.07,0.02,0,0,0,'Snow leopard'
0.6,0.21,0.09,0.07,0.01,0,0.01,0,0.01,0,'Snow leopard'
0.65,0.14,0.09,0.05,0.02,0.02,0,0.02,0.01,0,'Snow leopard'
0.42,0.22,0.18,0.08,0.04,0.02,0.01,0.03,0,0,'Snow leopard'
0.68,0.2,0.06,0.03,0.03,0,0,0,0,0,'Snow leopard'
0.61,0.27,0.07,0.01,0.03,0,0,0.01,0,0,'Snow leopard'
0.61,0.17,0.12,0.03,0.05,0.01,0.01,0,0,0,'Snow leopard'
0.7,0.23,0.06,0,0.01,0,0,0,0,0,'Snow leopard'
0.64,0.1,0.14,0.07,0.01,0.03,0,0.01,0,0,'Snow leopard'
0.78,0.14,0.01,0.01,0.02,0.01,0.01,0.01,0,0.01,'Snow leopard'
0.45,0.3,0.12,0.04,0.04,0.03,0,0.01,0.01,0,'Snow leopard'
0.55,0.24,0.11,0.03,0.03,0.02,0,0,0.02,0,'Snow leopard'
0.79,0.13,0.02,0.03,0,0.01,0.01,0.01,0,0,'Snow leopard'
0.79,0.13,0.04,0.01,0.02,0,0,0,0.01,0,'Snow leopard'
0.4,0.26,0.17,0.09,0.06,0.01,0.01,0,0,0,'Snow leopard'
0.82,0.01,0.02,0.03,0.05,0.01,0.02,0.03,0.01,0,'Snow leopard'
0.74,0.19,0.06,0.01,0,0,0,0,0,0,'Snow leopard'
0.56,0.13,0.11,0.05,0.08,0.01,0.03,0.02,0.01,0,'Snow leopard'
0.46,0.16,0.17,0.1,0.05,0.04,0.02,0,0,0,'Snow leopard'
0.76,0.09,0.04,0.06,0.02,0.01,0.01,0,0.01,0,'Snow leopard'
0.44,0.25,0.07,0.07,0.04,0.03,0.03,0.07,0,0,'Snow leopard'
0.51,0.3,0.08,0.05,0.02,0.02,0.01,0.01,0,0,'Snow leopard'
0.6,0.26,0.07,0.01,0.03,0.02,0.01,0,0,0,'Snow leopard'
0.52,0.27,0.11,0.04,0.05,0.01,0,0,0,0,'Snow leopard'
0.74,0.17,0.04,0.04,0,0,0.01,0,0,0,'Snow leopard'
0.71,0.15,0.09,0.02,0.02,0,0,0,0.01,0,'Snow leopard'
0.54,0.18,0.09,0.08,0.05,0.01,0.02,0.01,0.02,0,'Snow leopard'
0.5,0.28,0.13,0.05,0.03,0,0,0,0.01,0,'Snow leopard'
0.44,0.24,0.16,0.11,0.02,0.02,0.01,0,0,0,'Snow leopard'
0.37,0.22,0.14,0.12,0.08,0.04,0.02,0,0.01,0,'Snow leopard'
0.62,0.14,0.08,0.06,0.01,0.04,0.02,0.01,0.02,0,'Snow leopard'
0.36,0.18,0.11,0.14,0.18,0.02,0,0.01,0,0,'Snow leopard'
0.87,0.03,0.04,0.03,0.01,0.01,0,0.01,0,0,'Snow leopard'
0.54,0.23,0.05,0.07,0.04,0.01,0.03,0.01,0.01,0.01,'Snow leopard'
0.78,0.11,0.04,0.04,0,0.01,0,0.01,0.01,0,'Snow leopard'
0.81,0.12,0.01,0.03,0.02,0,0,0.01,0,0,'Snow leopard'
0.32,0.15,0.17,0.14,0.11,0.06,0.03,0.02,0,0,'Snow leopard'
0.76,0.02,0.06,0.05,0.04,0.03,0.01,0.01,0.02,0,'Snow leopard'
0.56,0.21,0.08,0.15,0,0,0,0,0,0,'Snow leopard'
0.49,0.24,0.12,0.06,0.04,0.02,0.01,0.02,0,0,'Snow leopard'
0.58,0.15,0.13,0.06,0.04,0.03,0,0,0.01,0,'Snow leopard'
0.26,0.28,0.26,0.08,0.04,0.02,0.01,0.01,0.02,0.02,'Snow leopard'
0.63,0.21,0.09,0.02,0.03,0,0.01,0,0.01,0,'Snow leopard'
0.43,0.25,0.12,0.1,0.08,0,0.01,0,0.01,0,'Snow leopard'
0.46,0.18,0.2,0.11,0.02,0,0.02,0,0,0.01,'Snow leopard'
0.57,0.28,0.05,0.03,0.02,0.02,0.01,0,0.02,0,'Snow leopard'
0.37,0.33,0.14,0.06,0.04,0.02,0.03,0,0,0.01,'Snow leopard'
0.43,0.14,0.15,0.16,0.03,0,0.01,0,0.01,0.07,'Snow leopard'
0.68,0.2,0.07,0.01,0.02,0.01,0,0.01,0,0,'Snow leopard'
0.7,0.14,0.08,0.03,0.02,0.01,0.02,0,0,0,'Snow leopard'
0.29,0.25,0.16,0.1,0.06,0.07,0.05,0.01,0,0.01,'Snow leopard'
0.45,0.17,0.15,0.04,0.09,0.05,0.03,0.01,0.01,0,'Snow leopard'
0.46,0.25,0.08,0.06,0.09,0.06,0,0,0,0,'Snow leopard'
0.64,0.21,0.06,0.06,0,0.02,0.01,0,0,0,'Snow leopard'
0.53,0.24,0.13,0.07,0.02,0.01,0,0,0,0,'Snow leopard'
0.74,0.1,0.07,0.04,0.04,0.01,0,0,0,0,'Snow leopard'
0.63,0.19,0.1,0.04,0.02,0.02,0,0,0,0,'Snow leopard'
0.64,0.16,0.11,0.04,0.03,0.02,0,0,0,0,'Snow leopard'
0.7,0.17,0.04,0.05,0.02,0.01,0,0.01,0,0,'Snow leopard'
0.51,0.19,0.14,0.05,0.04,0.03,0.02,0.01,0.01,0,'Snow leopard'
0.64,0.19,0.04,0.03,0.02,0.04,0.02,0.01,0.01,0,'Mirror Carp'
0.7,0.12,0.06,0.04,0.04,0.01,0.03,0,0,0,'Mirror Carp'
0.47,0.17,0.16,0.09,0.04,0.02,0.04,0.01,0,0,'Mirror Carp'
0.6,0.14,0.14,0.05,0.02,0.03,0.01,0,0.01,0,'Mirror Carp'
0.57,0.2,0.06,0.07,0.04,0.04,0.01,0,0.01,0,'Mirror Carp'
0.48,0.17,0.1,0.08,0.05,0.05,0.02,0.04,0.01,0,'Mirror Carp'
0.78,0.09,0.04,0.04,0.02,0.01,0.01,0,0.01,0,'Mirror Carp'
0.74,0.15,0.04,0.01,0.02,0,0.01,0,0.02,0.01,'Mirror Carp'
0.79,0.1,0.05,0.05,0.01,0,0,0,0,0,'Mirror Carp'
0.56,0.19,0.15,0.02,0.04,0.01,0.02,0.01,0,0,'Mirror Carp'
0.82,0.07,0.04,0.01,0.02,0.01,0.02,0,0.01,0,'Mirror Carp'
0.7,0.14,0.07,0.02,0.01,0.03,0,0,0.01,0.02,'Mirror Carp'
0.57,0.2,0.13,0.05,0.03,0.01,0.01,0,0,0,'Mirror Carp'
0.75,0.05,0.03,0.06,0.05,0.01,0.03,0,0.02,0,'Mirror Carp'
0.74,0.07,0.04,0.07,0.01,0.03,0.02,0.01,0.01,0,'Mirror Carp'
0.79,0.08,0.03,0.01,0.03,0.03,0.02,0.01,0,0,'Mirror Carp'
0.81,0.08,0.05,0.03,0.03,0,0,0,0,0,'Mirror Carp'
0.8,0.08,0.03,0.04,0.02,0.01,0.01,0.01,0,0,'Mirror Carp'
0.77,0.05,0.03,0.05,0.02,0.05,0.02,0.01,0,0,'Mirror Carp'
0.76,0.06,0.06,0.04,0.02,0.04,0.02,0,0,0,'Mirror Carp'
0.76,0.08,0.03,0.05,0.02,0.03,0.01,0.01,0.01,0,'Mirror Carp'
0.75,0.05,0.05,0.05,0.04,0.01,0.03,0,0.02,0,'Mirror Carp'
0.73,0.07,0.05,0.03,0.03,0.04,0.03,0.01,0.01,0,'Mirror Carp'
0.76,0.06,0.06,0.04,0.02,0.04,0.02,0,0,0,'Mirror Carp'
0.73,0.1,0.03,0.03,0.05,0.02,0.02,0.01,0.01,0,'Mirror Carp'
0.73,0.09,0.03,0.05,0.03,0.04,0,0.02,0.01,0,'Mirror Carp'
0.78,0.07,0.03,0.04,0.02,0.01,0.04,0.01,0,0,'Mirror Carp'
0.8,0.09,0.06,0.02,0.01,0,0.01,0.01,0,0,'Mirror Carp'
0.78,0.06,0.02,0.04,0.02,0.02,0.05,0.01,0,0,'Mirror Carp'
0.63,0.13,0.03,0.07,0.07,0.03,0.01,0.01,0.02,0,'Mirror Carp'
0.76,0.07,0.04,0.03,0.04,0.02,0.02,0.01,0.01,0,'Mirror Carp'
0.8,0.07,0.05,0.02,0.01,0.01,0.01,0.02,0,0.01,'Mirror Carp'
0.78,0.05,0.04,0.06,0.02,0.02,0.01,0.01,0.01,0,'Mirror Carp'
0.82,0.08,0.03,0.01,0.01,0.02,0.02,0,0.01,0,'Mirror Carp'
0.78,0.07,0.03,0.04,0.02,0.01,0.04,0.01,0,0,'Mirror Carp'
0.83,0.07,0.03,0.02,0.02,0,0.02,0.01,0,0,'Mirror Carp'
0.81,0.13,0.03,0.02,0.01,0,0,0,0,0,'Mirror Carp'
0.82,0.06,0.03,0.02,0.05,0.01,0,0.01,0,0,'Mirror Carp'
0.75,0.09,0.06,0.03,0.02,0.01,0.02,0.01,0,0.01,'Mirror Carp'
0.8,0.15,0.04,0.01,0,0,0,0,0,0,'Mirror Carp'
0.85,0.05,0.01,0.03,0.01,0.02,0.01,0.01,0.01,0,'Mirror Carp'
0.68,0.17,0.04,0.03,0.03,0.01,0.02,0.01,0.01,0,'Mirror Carp'
0.81,0.06,0.04,0.01,0.01,0.03,0.02,0.02,0,0,'Mirror Carp'
0.82,0.05,0.04,0.02,0.02,0.03,0.01,0.01,0,0,'Mirror Carp'
0.81,0.05,0.03,0.03,0.01,0.03,0.03,0,0,0.01,'Mirror Carp'
0.88,0.04,0.01,0.04,0.01,0.01,0.01,0,0,0,'Mirror Carp'
0.73,0.06,0.04,0.01,0.05,0.04,0.04,0.02,0.01,0,'Mirror Carp'
0.76,0.05,0.03,0.03,0.02,0.03,0.04,0.02,0.01,0.01,'Mirror Carp'
0.79,0.1,0.05,0.02,0.02,0,0.01,0.01,0,0,'Mirror Carp'
0.79,0.08,0.07,0.02,0.03,0.01,0,0,0,0,'Mirror Carp'
0.67,0.19,0.07,0.04,0,0.01,0,0.01,0.01,0,'Mirror Carp'
0.79,0.1,0.05,0.05,0.01,0,0,0,0,0,'Mirror Carp'
0.81,0.08,0.05,0.03,0.03,0,0,0,0,0,'Mirror Carp'
0.63,0.25,0.08,0,0.01,0,0.01,0.02,0,0,'Mirror Carp'
0.81,0.08,0.05,0.03,0,0,0.02,0.01,0,0,'Mirror Carp'
0.78,0.13,0.05,0.01,0.01,0,0.01,0.01,0,0,'Mirror Carp'
0.48,0.26,0.06,0.05,0.05,0.05,0.01,0.02,0.01,0.01,'Mirror Carp'
0.8,0.06,0.04,0.02,0.04,0.01,0,0.03,0,0,'Mirror Carp'
0.74,0.09,0.04,0,0.04,0.03,0.04,0,0.01,0.01,'Mirror Carp'
0.78,0.03,0.03,0.05,0.03,0.03,0.02,0.01,0.02,0,'Mirror Carp'
0.79,0.04,0.04,0.03,0.03,0.04,0.01,0.01,0,0.01,'Mirror Carp'
0.82,0.05,0.04,0.01,0.02,0.02,0.01,0.01,0.01,0.01,'Mirror Carp'
0.64,0.14,0.06,0.04,0.01,0.06,0.04,0.01,0,0,'Mirror Carp'
0.77,0.05,0.05,0.03,0.02,0.05,0.01,0,0.02,0,'Mirror Carp'
0.71,0.07,0.03,0.07,0.04,0.05,0,0.02,0.01,0,'Mirror Carp'
0.76,0.05,0.09,0.02,0.04,0.02,0,0.02,0,0,'Mirror Carp'
0.68,0.15,0.03,0.08,0.03,0.02,0.01,0,0,0,'Mirror Carp'
0.79,0.05,0.02,0.01,0.04,0.05,0.01,0,0.01,0.02,'Mirror Carp'
0.66,0.2,0.02,0.03,0.04,0.03,0,0.01,0,0.01,'Mirror Carp'
0.61,0.21,0.03,0.05,0.03,0.02,0.02,0.02,0,0.01,'Mirror Carp'
0.69,0.17,0.05,0.02,0.03,0,0.01,0.01,0.01,0.01,'Mirror Carp'
0.73,0.07,0.04,0.04,0.07,0.02,0.01,0.02,0,0,'Mirror Carp'
0.66,0.15,0.05,0.04,0.02,0.03,0.02,0.03,0,0,'Mirror Carp'
0.66,0.18,0.09,0.03,0.02,0.01,0.01,0,0,0,'Mirror Carp'
0.73,0.17,0.06,0.01,0,0,0.01,0.01,0.01,0,'Mirror Carp'
0.79,0.08,0.05,0.03,0.02,0,0.02,0,0,0.01,'Mirror Carp'
0.76,0.08,0.03,0.05,0.02,0.03,0.01,0.01,0.01,0,'Mirror Carp'
0.8,0.09,0.06,0.01,0.02,0.01,0.01,0,0,0,'Mirror Carp'
0.73,0.17,0.05,0.01,0.01,0.01,0.02,0,0,0,'Mirror Carp'
0.66,0.17,0.06,0.05,0.04,0,0,0.01,0.01,0,'Mirror Carp'
0.42,0.3,0.08,0.07,0.04,0.03,0.02,0.02,0.01,0.01,'Mirror Carp'
0.59,0.25,0.01,0.04,0.06,0.01,0.01,0.02,0.01,0,'Mirror Carp'
0.57,0.29,0.07,0.01,0.03,0,0.01,0.01,0.01,0,'Mirror Carp'
0.72,0.15,0.03,0.03,0.03,0.01,0.01,0.01,0.01,0,'Mirror Carp'
0.64,0.18,0.08,0.02,0.01,0.02,0.02,0.02,0.01,0,'Mirror Carp'
0.53,0.19,0.14,0.03,0.02,0.03,0.03,0.01,0.01,0.01,'Mirror Carp'
0.6,0.2,0.06,0.02,0.04,0.02,0.01,0.04,0.01,0,'Mirror Carp'
0.75,0.05,0.03,0.07,0.02,0.03,0.03,0.01,0.01,0,'Mirror Carp'
0.72,0.17,0.01,0.03,0.02,0.02,0.02,0.01,0,0,'Mirror Carp'
0.62,0.25,0.04,0.03,0.01,0.02,0.01,0.02,0,0,'Mirror Carp'
0.62,0.2,0.06,0.01,0.05,0.03,0,0.02,0.01,0,'Mirror Carp'
0.5,0.29,0.08,0.02,0.04,0.02,0.03,0,0.02,0,'Mirror Carp'
0.59,0.24,0.07,0.01,0.02,0.03,0.01,0.02,0.01,0,'Mirror Carp'
0.65,0.22,0.05,0.03,0.01,0.03,0,0.01,0,0,'Mirror Carp'
0.69,0.2,0.04,0.03,0.01,0.01,0.01,0.01,0,0,'Mirror Carp'
0.7,0.18,0.06,0.02,0.02,0,0.01,0,0.01,0,'Mirror Carp'
0.77,0.12,0.04,0.01,0.02,0.02,0,0,0.01,0.01,'Mirror Carp'
0.82,0.13,0.03,0.02,0,0,0,0,0,0,'Mirror Carp'
0.78,0.07,0.04,0.02,0.04,0.03,0.01,0.01,0,0,'Mirror Carp'
0.8,0.09,0.06,0.01,0.02,0.01,0.01,0,0,0,'Mirror Carp'
0.73,0.17,0.05,0.01,0.01,0.01,0.02,0,0,0,'Mirror Carp'
0.43,0.34,0.07,0.02,0.03,0.01,0.01,0.05,0.02,0.02,'Mirror Carp'
0.55,0.27,0.05,0.01,0.03,0.01,0.02,0.04,0.02,0,'Mirror Carp'
0.57,0.26,0.02,0.04,0.05,0.02,0,0.03,0.01,0,'Mirror Carp'
0.72,0.15,0.03,0.03,0.03,0.01,0.01,0.01,0.01,0,'Mirror Carp'
0.73,0.17,0.06,0.01,0,0,0.01,0.01,0.01,0,'Mirror Carp'
0.87,0.04,0.02,0,0.01,0.02,0.02,0.01,0.01,0,'Mirror Carp'
0.78,0.05,0.05,0.03,0.03,0.03,0.02,0,0,0.01,'Mirror Carp'
0.77,0.08,0.04,0.01,0.02,0.02,0.02,0.02,0.01,0.01,'Mirror Carp'
0.73,0.06,0.04,0.05,0.04,0.05,0.01,0.02,0,0,'Mirror Carp'
0.75,0.04,0.06,0.03,0.03,0.04,0.02,0.03,0,0,'Mirror Carp'
0.82,0.06,0.03,0.03,0.03,0.01,0,0.02,0,0,'Mirror Carp'
0.83,0.07,0.04,0.02,0.01,0.01,0,0.01,0,0.01,'Mirror Carp'
0.78,0.05,0.07,0,0.04,0.02,0.02,0.01,0.01,0,'Mirror Carp'
0.64,0.15,0.04,0.03,0.05,0.03,0.03,0,0.03,0,'Mirror Carp'
0.49,0.24,0.08,0.04,0.05,0.06,0.03,0,0,0.01,'Mirror Carp'
0.79,0.08,0.02,0.03,0.02,0.04,0.01,0.01,0,0,'Mirror Carp'
0.82,0.09,0.02,0.01,0.02,0.01,0,0.01,0.02,0,'Mirror Carp'
0.64,0.15,0.06,0.05,0.04,0.02,0,0.03,0.01,0,'Mirror Carp'
0.65,0.16,0.04,0.05,0.03,0.02,0.02,0.01,0.01,0.01,'Mirror Carp'
0.91,0.02,0.03,0.03,0.01,0,0,0,0,0,Mrigal
0.9,0.03,0,0.03,0.02,0.01,0,0,0.01,0,Mrigal
0.88,0.05,0.03,0,0.01,0.03,0,0,0,0,Mrigal
0.88,0.05,0.03,0,0.02,0.01,0,0.01,0,0,Mrigal
0.89,0.04,0.02,0.02,0.01,0.01,0,0.01,0,0,Mrigal
0.82,0.06,0.03,0.02,0.01,0.01,0.02,0.01,0.02,0,Mrigal
0.88,0.05,0.02,0.01,0.01,0.02,0,0.01,0,0,Mrigal
0.88,0.04,0.02,0.01,0.02,0.02,0.01,0,0,0,Mrigal
0.92,0.02,0,0.02,0.01,0.02,0,0.01,0,0,Mrigal
0.87,0.03,0.03,0.01,0.02,0.02,0.01,0.01,0,0,Mrigal
0.88,0.05,0.03,0.01,0.01,0.01,0,0.01,0,0,Mrigal
0.9,0.02,0.04,0.01,0.02,0.01,0,0,0,0,Mrigal
0.91,0.03,0,0.02,0.01,0.02,0.01,0,0,0,Mrigal
0.92,0.02,0,0.02,0.01,0.02,0,0.01,0,0,Mrigal
0.92,0.02,0.02,0.01,0.02,0,0.01,0,0,0,Mrigal
0.91,0.01,0.03,0.02,0.03,0,0,0,0,0,Mrigal
0.92,0.02,0.02,0.01,0.02,0,0.01,0,0,0,Mrigal
0.91,0.03,0.02,0.03,0,0,0,0.01,0,0,Mrigal
0.92,0.02,0.02,0.03,0,0,0,0.01,0,0,Mrigal
0.91,0.03,0.02,0.02,0.01,0,0,0.01,0,0,Mrigal
0.91,0.03,0.02,0.03,0,0,0,0.01,0,0,Mrigal
0.91,0.02,0.02,0.03,0.02,0,0,0,0,0,Mrigal
0.91,0.02,0.02,0.04,0,0.01,0,0,0,0,Mrigal
0.91,0.03,0.02,0.03,0.01,0,0,0,0,0,Mrigal
0.91,0.03,0.01,0.04,0.01,0,0,0,0,0,Mrigal
0.9,0.02,0.01,0.01,0.01,0,0.03,0.01,0.01,0,Mrigal
0.91,0.03,0.02,0.03,0.01,0,0,0,0,0,Mrigal
0.81,0.06,0.05,0.04,0.01,0.03,0,0,0,0,Mrigal
0.87,0.02,0.04,0.03,0.03,0,0,0.01,0,0,Mrigal
0.89,0.04,0,0.01,0,0.02,0.02,0.02,0,0,Mrigal
0.87,0.01,0.04,0.05,0.01,0,0.02,0,0,0,Mrigal
0.9,0.02,0.03,0.01,0.02,0.01,0.01,0,0,0,Mrigal
0.86,0.05,0.02,0.02,0.03,0.01,0.01,0,0,0,Mrigal
0.9,0.05,0.01,0,0.03,0.01,0,0,0,0,Mrigal
0.83,0.1,0.03,0,0.01,0.02,0,0,0.01,0,Mrigal
0.77,0.14,0.01,0.02,0.01,0.02,0,0.01,0.01,0.01,Mrigal
0.86,0.04,0.03,0.04,0.01,0.01,0,0.01,0,0,Mrigal
0.9,0.02,0.03,0.04,0,0,0,0.01,0,0,Mrigal
0.87,0.08,0.02,0,0.02,0,0,0.01,0,0,Mrigal
0.9,0.02,0.03,0.04,0,0.01,0,0,0,0,Mrigal
0.83,0.07,0.01,0.03,0.01,0.02,0.01,0.02,0,0,Mrigal
0.87,0.05,0.02,0.01,0.02,0.01,0,0.01,0.01,0,Mrigal
0.87,0.04,0.02,0.05,0,0.01,0.01,0,0,0,Mrigal
0.83,0.1,0.03,0.02,0,0.01,0,0,0.01,0,Mrigal
0.82,0.09,0.03,0.01,0.02,0,0,0,0.01,0.02,Mrigal
0.88,0.06,0.02,0.02,0,0,0.01,0.01,0,0,Mrigal
0.81,0.04,0.06,0.05,0.02,0.01,0.01,0,0,0,Mrigal
0.87,0.06,0.02,0.02,0.01,0.01,0,0,0.01,0,Mrigal
0.87,0.03,0.03,0.02,0.01,0.02,0.01,0.01,0,0,Mrigal
0.91,0.03,0.02,0.03,0,0,0,0.01,0,0,Mrigal
0.83,0.08,0.01,0.02,0.02,0.03,0,0,0,0.01,Mrigal
0.87,0.04,0.01,0.02,0.02,0.01,0,0,0.02,0.01,Mrigal
0.92,0.03,0.01,0.01,0.01,0.01,0,0.01,0,0,Mrigal
0.78,0.12,0.06,0.03,0,0,0,0.01,0,0,Mrigal
0.68,0.2,0.04,0.01,0.02,0,0.02,0.02,0,0.01,Mrigal
0.88,0.03,0.02,0.02,0.02,0.01,0.01,0.01,0,0,Mrigal
0.92,0.02,0.02,0.01,0.02,0,0,0.01,0,0,Mrigal
0.91,0.03,0.03,0.02,0,0,0,0.01,0,0,Mrigal
0.91,0.03,0.03,0.02,0,0,0,0.01,0,0,Mrigal
0.88,0.05,0.03,0,0.01,0.03,0,0,0,0,Mrigal
0.91,0.03,0.02,0.03,0,0,0,0.01,0,0,Mrigal
0.91,0.03,0.03,0.02,0,0,0,0.01,0,0,Mrigal
0.91,0.03,0.03,0.02,0,0,0,0.01,0,0,Mrigal
0.9,0.04,0.03,0.01,0.01,0,0.01,0,0,0,Mrigal
0.89,0.05,0.02,0,0.01,0,0.02,0.01,0,0,Mrigal
0.89,0.04,0.03,0.01,0.01,0.01,0,0.01,0,0,Mrigal
0.87,0.03,0.04,0.02,0,0.01,0.01,0,0.02,0,Mrigal
0.87,0.05,0.05,0.01,0,0,0.02,0,0,0,Mrigal
0.84,0.08,0.04,0,0.01,0.01,0.01,0.01,0,0,Mrigal
0.87,0.04,0.03,0.04,0.01,0.01,0,0,0,0,Mrigal
0.81,0.11,0.04,0.01,0.01,0,0,0.01,0.01,0,Mrigal
0.83,0.07,0.03,0.04,0.01,0,0,0.01,0.01,0,Mrigal
0.83,0.05,0.04,0.02,0,0.02,0.02,0.01,0.01,0,Mrigal
0.82,0.09,0.02,0,0.03,0.02,0,0.02,0,0,Mrigal
0.87,0.06,0.03,0.01,0.01,0.01,0,0.01,0,0,Mrigal
0.9,0.06,0.03,0,0,0,0.01,0,0,0,Mrigal
0.88,0.05,0.02,0.01,0.01,0.02,0,0.01,0,0,Mrigal
0.87,0.04,0,0.03,0,0.03,0.02,0,0.01,0,Mrigal
0.92,0.05,0.01,0,0.01,0,0,0.01,0,0,Mrigal
0.89,0.04,0.03,0.01,0.02,0,0,0,0,0.01,Mrigal
0.83,0.08,0.06,0.01,0.01,0,0.01,0,0,0,Mrigal
0.5,0.33,0.13,0.02,0,0.01,0,0.01,0,0,Mrigal
0.88,0.06,0.01,0.02,0.02,0,0,0,0.01,0,Mrigal
0.87,0.08,0.04,0.01,0,0,0,0,0,0,Mrigal
0.68,0.2,0.04,0.03,0.01,0,0.02,0.01,0.01,0,Mrigal
0.92,0.03,0.01,0.02,0,0.01,0.01,0,0,0,Mrigal
0.92,0.03,0.02,0.01,0,0,0.01,0,0.01,0,Mrigal
0.88,0.04,0.02,0.01,0.02,0.02,0.01,0,0,0,Mrigal
0.92,0.05,0.01,0.01,0,0,0,0.01,0,0,Mrigal
0.89,0.05,0.02,0.02,0.01,0.01,0,0,0,0,Mrigal
0.9,0.07,0.02,0,0.01,0,0,0,0,0,Mrigal
0.91,0.06,0.01,0.01,0,0,0,0.01,0,0,Mrigal
0.92,0.02,0.01,0.02,0.01,0,0.01,0.01,0,0,Mrigal
0.68,0.18,0.08,0.04,0.02,0,0,0,0,0,Mrigal
0.72,0.13,0.03,0.06,0.01,0.02,0.02,0.01,0,0,Mrigal
0.54,0.27,0.06,0.04,0.06,0.02,0.01,0,0,0,Mrigal
0.87,0.04,0,0.01,0.01,0.01,0.02,0.01,0.02,0.01,Mrigal
0.86,0.06,0.01,0.02,0.01,0.01,0.01,0.01,0.01,0,Mrigal
0.87,0.03,0.03,0.01,0.02,0.02,0.01,0.01,0,0,Mrigal
0.88,0.02,0,0.02,0.03,0.02,0.01,0,0.02,0,Mrigal
0.78,0.06,0.03,0.01,0.01,0.01,0.04,0.04,0.02,0,Mrigal
0.92,0.01,0.02,0.01,0,0.02,0.02,0,0,0,Mrigal
0.82,0.07,0.04,0.02,0.02,0.01,0.01,0,0,0.01,Mrigal
0.91,0.02,0.01,0.01,0.01,0.01,0.01,0.02,0,0,Mrigal
0.92,0.05,0.01,0.01,0.01,0,0,0,0,0,Mrigal
0.87,0.07,0.02,0,0.02,0.01,0.01,0,0,0,Mrigal
0.94,0.01,0.02,0,0.01,0,0.01,0,0.01,0,Mrigal
0.93,0.04,0.01,0,0.01,0,0,0,0.01,0,Mrigal
0.84,0.09,0.01,0.02,0,0,0.02,0.01,0.01,0,Mrigal
0.87,0.03,0.03,0.01,0.02,0.02,0.01,0.01,0,0,Mrigal
0.87,0.04,0.01,0.02,0.02,0.01,0.01,0.01,0.01,0,Mrigal
0.93,0.03,0,0.02,0.01,0.01,0,0,0,0,Mrigal
0.85,0.06,0.04,0.02,0.01,0.01,0,0,0.01,0,Mrigal
0.86,0.05,0.03,0.01,0,0.02,0.02,0,0,0.01,Mrigal
0.86,0.08,0.02,0,0.02,0,0.01,0,0.01,0,Mrigal
0.89,0.02,0.03,0.03,0.02,0.01,0,0,0,0,Mrigal
0.78,0.06,0.04,0.02,0.03,0.04,0.01,0.01,0.01,0,Mrigal
0.7,0.11,0.03,0.04,0.03,0.02,0.04,0.01,0.02,0,Mrigal
0.81,0.06,0.04,0.07,0.01,0.01,0,0,0,0,Mrigal
0.91,0.02,0,0.01,0.03,0,0.01,0.02,0,0,Mrigal
0.83,0.05,0.05,0.03,0,0.02,0.02,0,0,0,'Nile Tilapia'
0.6,0.11,0.11,0.04,0.04,0.03,0.06,0.01,0,0,'Nile Tilapia'
0.73,0.1,0.02,0.05,0.02,0.03,0.02,0.03,0,0,'Nile Tilapia'
0.37,0.39,0.04,0.03,0.06,0.04,0.03,0.02,0,0.02,'Nile Tilapia'
0.89,0.03,0.01,0.03,0.01,0.02,0,0,0,0.01,'Nile Tilapia'
0.82,0.03,0.04,0.02,0.02,0.03,0.03,0.01,0,0,'Nile Tilapia'
0.65,0.17,0.02,0.05,0.02,0.05,0.01,0.02,0,0.01,'Nile Tilapia'
0.77,0.1,0.03,0.01,0.03,0.03,0.01,0,0.02,0,'Nile Tilapia'
0.72,0.07,0.04,0.02,0.06,0.04,0.01,0.02,0.01,0.01,'Nile Tilapia'
0.79,0.04,0.06,0.03,0.03,0.01,0.01,0.01,0.01,0.01,'Nile Tilapia'
0.78,0.06,0.03,0.04,0.02,0.02,0.03,0,0.01,0.01,'Nile Tilapia'
0.64,0.14,0.04,0.03,0.03,0.05,0.05,0.02,0,0,'Nile Tilapia'
0.82,0.04,0.06,0.01,0.03,0.01,0.02,0.01,0,0,'Nile Tilapia'
0.76,0.06,0.06,0.03,0.05,0.01,0,0,0.02,0.01,'Nile Tilapia'
0.79,0.1,0.03,0.02,0.01,0.01,0.03,0,0,0.01,'Nile Tilapia'
0.57,0.26,0.02,0.03,0.04,0.02,0.03,0.02,0.01,0,'Nile Tilapia'
0.83,0.04,0.01,0.02,0.02,0.03,0.01,0.02,0.01,0.01,'Nile Tilapia'
0.22,0.31,0.05,0.08,0.13,0.13,0.02,0.06,0,0,'Nile Tilapia'
0.43,0.26,0.12,0.08,0.04,0.03,0.02,0.01,0.01,0,'Nile Tilapia'
0.71,0.09,0.08,0.03,0.04,0.03,0.01,0,0,0.01,'Nile Tilapia'
0.85,0.03,0.04,0.01,0.03,0.01,0.01,0.01,0.01,0,'Nile Tilapia'
0.85,0.04,0.03,0.02,0,0.02,0.02,0.01,0.01,0,'Nile Tilapia'
0.38,0.3,0.12,0.07,0.03,0.04,0.02,0.03,0.01,0,'Nile Tilapia'
0.74,0.05,0.06,0.06,0.01,0.03,0.03,0.01,0,0.01,'Nile Tilapia'
0.4,0.36,0.02,0.04,0.02,0.02,0.07,0.05,0.02,0,'Nile Tilapia'
0.75,0.05,0.04,0.04,0.06,0.03,0,0,0.02,0.01,'Nile Tilapia'
0.74,0.05,0.04,0.04,0.06,0.03,0.03,0.01,0,0,'Nile Tilapia'
0.76,0.09,0.02,0.05,0.02,0.03,0.02,0,0.01,0,'Nile Tilapia'
0.66,0.15,0.04,0.03,0.01,0.02,0.03,0.04,0.02,0,'Nile Tilapia'
0.27,0.43,0.11,0.03,0.02,0.02,0.03,0.01,0.04,0.04,'Nile Tilapia'
0.19,0.43,0.14,0.04,0.05,0.02,0.06,0.06,0,0.01,'Nile Tilapia'
0.62,0.19,0.08,0.04,0.03,0.02,0,0.01,0.01,0,'Nile Tilapia'
0.82,0.04,0.03,0,0.03,0.03,0,0.02,0.01,0.02,'Nile Tilapia'
0.23,0.52,0.06,0.07,0.03,0.03,0.01,0.04,0,0.01,'Nile Tilapia'
0.65,0.15,0.06,0.06,0.03,0.03,0.02,0,0,0,'Nile Tilapia'
0.64,0.2,0.03,0.03,0.02,0.02,0.02,0.02,0.01,0.01,'Nile Tilapia'
0.62,0.15,0.09,0.01,0.03,0.03,0.03,0.02,0.01,0.01,'Nile Tilapia'
0.72,0.07,0.04,0.05,0.03,0.02,0.03,0.03,0,0.01,'Nile Tilapia'
0.76,0.07,0.06,0.02,0.03,0.03,0,0.01,0.02,0,'Nile Tilapia'
0.27,0.29,0.24,0.04,0.05,0.05,0.03,0,0.02,0.01,'Nile Tilapia'
0.65,0.2,0.05,0.04,0.01,0.01,0,0.02,0.01,0.01,'Nile Tilapia'
0.67,0.16,0.08,0.03,0.02,0,0.01,0.01,0.02,0,'Nile Tilapia'
0.41,0.23,0.15,0.02,0.03,0.04,0.05,0.04,0.02,0.01,'Nile Tilapia'
0.5,0.28,0.07,0.04,0.02,0.03,0.03,0,0.03,0,'Nile Tilapia'
0.27,0.47,0.05,0.04,0.02,0.06,0.03,0.05,0,0.01,'Nile Tilapia'
0.74,0.05,0.06,0.03,0.02,0.02,0.03,0.02,0.01,0.02,'Nile Tilapia'
0.83,0.07,0.01,0,0.03,0.02,0.02,0.01,0.01,0,'Nile Tilapia'
0.59,0.23,0.01,0.03,0.02,0.03,0.03,0.02,0.04,0,'Nile Tilapia'
0.68,0.19,0.03,0.03,0,0.03,0.01,0.01,0.02,0,'Nile Tilapia'
0.73,0.11,0.08,0.05,0.02,0.01,0,0,0,0,'Nile Tilapia'
0.77,0.05,0.04,0.08,0.02,0.02,0,0.01,0.01,0,'Nile Tilapia'
0.6,0.22,0.05,0.01,0.04,0.05,0.01,0.01,0,0.01,'Nile Tilapia'
0.54,0.24,0.06,0.05,0.02,0.03,0.02,0.02,0.01,0.01,'Nile Tilapia'
0.6,0.19,0.05,0.07,0.03,0.02,0.02,0.01,0.01,0,'Nile Tilapia'
0.69,0.2,0.02,0.02,0.01,0.03,0.02,0.01,0,0,'Nile Tilapia'
0.66,0.21,0.07,0.04,0.02,0,0,0,0,0,'Nile Tilapia'
0.55,0.27,0.03,0.06,0.04,0,0.02,0.01,0.02,0,'Nile Tilapia'
0.24,0.47,0.06,0.05,0.04,0.02,0.05,0.04,0.01,0.02,'Nile Tilapia'
0.61,0.19,0.07,0.04,0.02,0.03,0.02,0.01,0,0.01,'Nile Tilapia'
0.52,0.25,0.12,0.02,0.04,0.03,0.01,0.01,0,0,'Nile Tilapia'
0.42,0.31,0.12,0.04,0.04,0.02,0.02,0,0.03,0,'Nile Tilapia'
0.82,0.05,0.02,0.03,0.02,0.02,0.01,0.02,0,0.01,'Nile Tilapia'
0.6,0.14,0.05,0.06,0.04,0.02,0.03,0.02,0.02,0.02,'Nile Tilapia'
0.73,0.12,0.04,0.05,0.04,0.01,0,0,0.01,0,'Nile Tilapia'
0.57,0.22,0.08,0.07,0.02,0.01,0,0.02,0.01,0,'Nile Tilapia'
0.81,0.06,0.02,0.01,0.02,0.04,0.01,0.02,0.01,0,'Nile Tilapia'
0.66,0.13,0.05,0.04,0.03,0.04,0.01,0.02,0.01,0.01,'Nile Tilapia'
0.76,0.03,0.05,0.05,0.04,0.03,0.02,0.02,0,0,'Nile Tilapia'
0.37,0.4,0.12,0.04,0.01,0.01,0.02,0,0.02,0.01,'Nile Tilapia'
0.79,0.05,0.03,0.02,0.05,0.02,0.01,0.01,0.02,0,'Nile Tilapia'
0.75,0.08,0.09,0.04,0.02,0,0.01,0.01,0,0,'Nile Tilapia'
0.78,0.12,0.07,0,0.02,0,0.01,0,0,0,'Nile Tilapia'
0.3,0.47,0.06,0.02,0.06,0.02,0.03,0.02,0.02,0,'Nile Tilapia'
0.39,0.37,0.01,0.04,0.07,0.04,0.02,0.04,0.01,0.01,'Nile Tilapia'
0.76,0.08,0.04,0.04,0.03,0.01,0.02,0.02,0,0,'Nile Tilapia'
0.43,0.33,0.08,0.06,0.03,0.03,0.02,0.01,0.01,0,'Nile Tilapia'
0.82,0.06,0.01,0.01,0.03,0.03,0.01,0.01,0.01,0.01,'Nile Tilapia'
0.78,0.06,0.01,0.04,0.03,0.01,0.03,0.01,0.01,0.02,'Nile Tilapia'
0.62,0.19,0.04,0.06,0.05,0.01,0.03,0,0,0,'Nile Tilapia'
0.79,0.06,0.02,0.04,0.03,0.02,0.02,0.01,0.01,0,'Nile Tilapia'
0.83,0.06,0.04,0.01,0.01,0.02,0.01,0.01,0.01,0,'Nile Tilapia'
0.3,0.45,0.05,0.05,0.04,0.01,0.03,0.02,0.02,0.03,'Nile Tilapia'
0.75,0.07,0.04,0.03,0.03,0.03,0.01,0.02,0,0.02,'Nile Tilapia'
0.55,0.23,0.09,0.04,0.03,0.04,0,0.02,0,0,'Nile Tilapia'
0.85,0.05,0.04,0.01,0,0.01,0.01,0.02,0.01,0,'Nile Tilapia'
0.17,0.08,0.17,0.31,0.03,0.08,0.03,0.04,0.05,0.04,'Nile Tilapia'
0.74,0.08,0.05,0.03,0.02,0.03,0.03,0.01,0,0.01,'Nile Tilapia'
0.55,0.24,0.09,0.04,0.03,0.03,0.02,0,0,0,'Nile Tilapia'
0.4,0.41,0.09,0.03,0.03,0.01,0.02,0,0.01,0,'Nile Tilapia'
0.78,0.1,0.04,0.01,0.01,0.01,0.01,0.02,0.01,0.01,'Nile Tilapia'
0.31,0.3,0.12,0.06,0.05,0.03,0.02,0.02,0.04,0.05,'Nile Tilapia'
0.84,0.06,0.01,0.02,0.01,0.03,0.02,0,0.01,0,'Nile Tilapia'
0.32,0.41,0.05,0.05,0.07,0.03,0.03,0.02,0.02,0,'Nile Tilapia'
0.26,0.4,0.12,0.07,0.06,0.04,0.03,0.01,0.01,0,'Nile Tilapia'
0.66,0.16,0,0.03,0.04,0.03,0.03,0.01,0.04,0,'Nile Tilapia'
0.79,0.08,0.03,0.04,0.02,0.01,0,0.01,0.01,0.01,'Nile Tilapia'
0.44,0.21,0.13,0.02,0.04,0.04,0.05,0.04,0.02,0.01,'Nile Tilapia'
0.85,0.02,0.02,0.03,0.01,0.04,0,0.03,0,0,'Nile Tilapia'
0.75,0.08,0.04,0.03,0.03,0.03,0.02,0.01,0.01,0,'Nile Tilapia'
0.63,0.2,0.07,0.05,0.02,0.02,0.01,0,0,0,'Nile Tilapia'
0.63,0.21,0.04,0.04,0.04,0.01,0,0.02,0.01,0,'Nile Tilapia'
0.42,0.37,0.1,0.04,0.03,0.03,0,0.01,0,0,'Nile Tilapia'
0.67,0.11,0.06,0.06,0.04,0.03,0.02,0.01,0,0,'Nile Tilapia'
0.8,0.03,0.07,0.02,0.04,0.01,0.02,0,0.01,0,'Nile Tilapia'
0.75,0.08,0.05,0.05,0.03,0.01,0.01,0.01,0.01,0,'Nile Tilapia'
0.45,0.26,0.11,0.04,0.02,0.03,0.04,0.03,0.01,0.01,'Nile Tilapia'
0.79,0.03,0.06,0.05,0.02,0.02,0.02,0,0.01,0,'Nile Tilapia'
0.24,0.5,0.05,0.03,0.03,0.03,0.01,0.02,0.05,0.04,'Nile Tilapia'
0.58,0.18,0.05,0.06,0.04,0.06,0.02,0.01,0,0,'Nile Tilapia'
0.63,0.16,0.06,0.02,0.04,0.04,0.02,0.01,0.02,0,'Nile Tilapia'
0.37,0.39,0.1,0.02,0.04,0.04,0.02,0,0.02,0,'Nile Tilapia'
0.74,0.06,0.05,0.07,0.03,0.01,0.02,0.01,0.01,0,'Nile Tilapia'
0.75,0.1,0.03,0.04,0.02,0,0.02,0.02,0.01,0.01,'Nile Tilapia'
0.74,0.09,0.09,0.04,0.02,0.01,0,0,0,0.01,'Nile Tilapia'
0.78,0.09,0.04,0.02,0.04,0,0.03,0,0,0,'Nile Tilapia'
0.83,0.04,0.04,0.03,0,0.04,0.02,0,0,0,'Nile Tilapia'
0.75,0.02,0.06,0.06,0.02,0.04,0.02,0,0.03,0,'Nile Tilapia'
0.41,0.32,0.08,0.07,0.06,0.02,0.03,0,0.01,0,'Nile Tilapia'
0.57,0.21,0.06,0.02,0.03,0.03,0.02,0.04,0.02,0,'Nile Tilapia'
0.69,0.14,0.05,0.05,0.01,0.03,0.01,0.01,0.01,0,'Nile Tilapia'
0.51,0.23,0.11,0.07,0.05,0.02,0.01,0,0,0,'Popcorn Chicken'
0.36,0.23,0.17,0.11,0.04,0.03,0.02,0,0.01,0.03,'Popcorn Chicken'
0.15,0.17,0.16,0.13,0.04,0.15,0.08,0.06,0.05,0.01,'Popcorn Chicken'
0.15,0.12,0.17,0.19,0.14,0.08,0.11,0.03,0.01,0,'Popcorn Chicken'
0.67,0.23,0.05,0.03,0.02,0,0,0,0,0,'Popcorn Chicken'
0.7,0.22,0.04,0.03,0,0,0,0.01,0,0,'Popcorn Chicken'
0.24,0.27,0.1,0.07,0.09,0.14,0.05,0.04,0,0,'Popcorn Chicken'
0.26,0.19,0.09,0.09,0.08,0.12,0.09,0.06,0.02,0,'Popcorn Chicken'
0.22,0.23,0.06,0.06,0.12,0.1,0.11,0.07,0.02,0.01,'Popcorn Chicken'
0.22,0.23,0.05,0.1,0.1,0.12,0.08,0.06,0.03,0.01,'Popcorn Chicken'
0.26,0.2,0.13,0.07,0.11,0.11,0.08,0.03,0.01,0,'Popcorn Chicken'
0.2,0.19,0.16,0.07,0.05,0.11,0.09,0.07,0.05,0.01,'Popcorn Chicken'
0.46,0.21,0.16,0.07,0.03,0.02,0.01,0.01,0.01,0.02,'Popcorn Chicken'
0.19,0.18,0.08,0.15,0.08,0.08,0.12,0.05,0.04,0.03,'Popcorn Chicken'
0.24,0.2,0.08,0.07,0.08,0.09,0.11,0.05,0.05,0.03,'Popcorn Chicken'
0.27,0.18,0.12,0.16,0.09,0.13,0.05,0,0,0,'Popcorn Chicken'
0.3,0.18,0.14,0.14,0.14,0.08,0.01,0,0.01,0,'Popcorn Chicken'
0.24,0.23,0.12,0.09,0.13,0.09,0.07,0.01,0.01,0.01,'Popcorn Chicken'
0.26,0.26,0.14,0.16,0.07,0.05,0.05,0.01,0,0,'Popcorn Chicken'
0.22,0.18,0.12,0.17,0.14,0.07,0.02,0.04,0.04,0,'Popcorn Chicken'
0.3,0.24,0.17,0.11,0.08,0.03,0.06,0,0.01,0,'Popcorn Chicken'
0.46,0.2,0.15,0.05,0.05,0.02,0.03,0.01,0.02,0.01,'Popcorn Chicken'
0.25,0.22,0.19,0.06,0.11,0.08,0.01,0.02,0.05,0.01,'Popcorn Chicken'
0.41,0.28,0.11,0.09,0.05,0.01,0.01,0.02,0.01,0.01,'Popcorn Chicken'
0.21,0.2,0.11,0.16,0.12,0.04,0.15,0.01,0,0,'Popcorn Chicken'
0.81,0.04,0.01,0.01,0.03,0,0.02,0.03,0.03,0.02,'Popcorn Chicken'
0.46,0.26,0.15,0.08,0.02,0,0.01,0,0.01,0.01,'Popcorn Chicken'
0.45,0.26,0.12,0.07,0.04,0.03,0.01,0.01,0,0.01,'Popcorn Chicken'
0.44,0.25,0.11,0.05,0.06,0.05,0,0.02,0.02,0,'Popcorn Chicken'
0.43,0.26,0.13,0.08,0.05,0,0.02,0,0.02,0.01,'Popcorn Chicken'
0.51,0.28,0.08,0.07,0.02,0.01,0.01,0.02,0,0,'Popcorn Chicken'
0.46,0.26,0.08,0.08,0.04,0.02,0.03,0.02,0.01,0,'Popcorn Chicken'
0.44,0.26,0.12,0.04,0.02,0.03,0.04,0.03,0.02,0,'Popcorn Chicken'
0.79,0.1,0.06,0.02,0,0,0,0.01,0.02,0,'Popcorn Chicken'
0.36,0.2,0.13,0.15,0.08,0.04,0.02,0,0.01,0.01,'Popcorn Chicken'
0.33,0.14,0.25,0.13,0.07,0.04,0.03,0,0.01,0,'Popcorn Chicken'
0.4,0.14,0.09,0.22,0.07,0.03,0.04,0,0,0.01,'Popcorn Chicken'
0.62,0.16,0.07,0.09,0.02,0.02,0.01,0.01,0,0,'Popcorn Chicken'
0.26,0.29,0.2,0.13,0.09,0.02,0.01,0,0,0,'Popcorn Chicken'
0.76,0.13,0.06,0.01,0.01,0,0.02,0.01,0,0,'Popcorn Chicken'
0.52,0.19,0.15,0.08,0.03,0.02,0,0,0.01,0,'Popcorn Chicken'
0.57,0.2,0.12,0.06,0.01,0.01,0.01,0.01,0.01,0,'Popcorn Chicken'
0.58,0.24,0.12,0.05,0.01,0,0,0,0,0,'Popcorn Chicken'
0.72,0.16,0.08,0.02,0.02,0,0,0,0,0,'Popcorn Chicken'
0.85,0.09,0.01,0.02,0.03,0,0,0,0,0,'Popcorn Chicken'
0.43,0.25,0.16,0.07,0.03,0.01,0,0.02,0.01,0.02,'Popcorn Chicken'
0.9,0.06,0,0.01,0,0.01,0,0.02,0,0,'Popcorn Chicken'
0.78,0.16,0.02,0.01,0.01,0.01,0.01,0,0,0,'Popcorn Chicken'
0.79,0.17,0.01,0.01,0,0.02,0,0,0,0,'Popcorn Chicken'
0.82,0.07,0.08,0.02,0,0.01,0,0,0,0,'Popcorn Chicken'
0.87,0.06,0.04,0,0.01,0.01,0,0,0.01,0,'Popcorn Chicken'
0.87,0.09,0.02,0,0,0.01,0,0,0.01,0,'Popcorn Chicken'
0.7,0.16,0.07,0.02,0.03,0,0.01,0.01,0,0,'Popcorn Chicken'
0.64,0.2,0.09,0.02,0.01,0,0.01,0.03,0,0,'Popcorn Chicken'
0.67,0.15,0.1,0.03,0.01,0.01,0.02,0.01,0,0,'Popcorn Chicken'
0.72,0.13,0.04,0.03,0.02,0.04,0.01,0,0.01,0,'Popcorn Chicken'
0.31,0.24,0.18,0.11,0.07,0.02,0,0.04,0.02,0.01,'Popcorn Chicken'
0.71,0.15,0.06,0.02,0.02,0.01,0.01,0.02,0,0,'Popcorn Chicken'
0.4,0.24,0.16,0.11,0.05,0.01,0,0,0.03,0,'Popcorn Chicken'
0.46,0.12,0.09,0.1,0.08,0.06,0.05,0.04,0,0,'Popcorn Chicken'
0.51,0.12,0.13,0.1,0.11,0.01,0.01,0,0.01,0,'Popcorn Chicken'
0.5,0.11,0.12,0.08,0.13,0.05,0,0,0.01,0,'Popcorn Chicken'
0.51,0.27,0.08,0.05,0.06,0.03,0,0,0,0,'Popcorn Chicken'
0.47,0.19,0.24,0.06,0.03,0.01,0,0,0,0,'Popcorn Chicken'
0.25,0.12,0.17,0.14,0.07,0.13,0.06,0.06,0,0,'Popcorn Chicken'
0.63,0.19,0.01,0.04,0.01,0.04,0.01,0.01,0.01,0.05,'Popcorn Chicken'
0.18,0.15,0.34,0.14,0.07,0.08,0.02,0.02,0,0,'Popcorn Chicken'
0.31,0.27,0.21,0.11,0.03,0.03,0.03,0.01,0,0,'Popcorn Chicken'
0.24,0.12,0.18,0.17,0.08,0.06,0.06,0.05,0.04,0,'Popcorn Chicken'
0.21,0.08,0.18,0.24,0.12,0.06,0.08,0.02,0.01,0,'Popcorn Chicken'
0.26,0.27,0.23,0.18,0.02,0.01,0,0,0.02,0.01,'Popcorn Chicken'
0.29,0.2,0.26,0.18,0.04,0.02,0.01,0,0,0,'Popcorn Chicken'
0.41,0.24,0.19,0.11,0,0.02,0,0.02,0,0.01,'Popcorn Chicken'
0.81,0.17,0.01,0,0,0,0,0,0.01,0,'Popcorn Chicken'
0.38,0.18,0.25,0.1,0.05,0.02,0.01,0.01,0,0,'Popcorn Chicken'
0.18,0.12,0.22,0.16,0.11,0.1,0.05,0.02,0.02,0.02,'Popcorn Chicken'
0.15,0.31,0.12,0.13,0.14,0.09,0.05,0.01,0,0,'Popcorn Chicken'
0.23,0.23,0.17,0.13,0.1,0.07,0.03,0.04,0,0,'Popcorn Chicken'
0.27,0.26,0.08,0.16,0.1,0.07,0.06,0,0,0,'Popcorn Chicken'
0.48,0.36,0.13,0.01,0.01,0.01,0,0,0,0,'Popcorn Chicken'
0.54,0.24,0.18,0.03,0,0,0,0,0.01,0,'Popcorn Chicken'
0.5,0.24,0.18,0.07,0.01,0,0,0,0,0,'Popcorn Chicken'
0.52,0.31,0.1,0.05,0.01,0.01,0,0,0,0,'Popcorn Chicken'
0.25,0.24,0.17,0.11,0.06,0.05,0.04,0.05,0.03,0,'Popcorn Chicken'
0.41,0.31,0.08,0.05,0.08,0.06,0.01,0,0,0,'Popcorn Chicken'
0.2,0.16,0.11,0.12,0.06,0.11,0.06,0.07,0.08,0.03,'Popcorn Chicken'
0.46,0.24,0.15,0.08,0.04,0,0.01,0.01,0,0.01,'Popcorn Chicken'
0.42,0.22,0.13,0.11,0.08,0.03,0.01,0,0,0,'Popcorn Chicken'
0.38,0.24,0.14,0.08,0.06,0.05,0.03,0.01,0.01,0,'Popcorn Chicken'
0.42,0.22,0.15,0.13,0.05,0.01,0,0.01,0.01,0,'Popcorn Chicken'
0.34,0.31,0.13,0.16,0.02,0.02,0,0,0.02,0,'Popcorn Chicken'
0.62,0.21,0.11,0.03,0,0,0,0.02,0.01,0,'Popcorn Chicken'
0.36,0.3,0.18,0.05,0.05,0.03,0.01,0.01,0.01,0,'Popcorn Chicken'
0.3,0.26,0.18,0.18,0.05,0.01,0.01,0,0.01,0,'Popcorn Chicken'
0.41,0.33,0.15,0.06,0.03,0,0.01,0,0,0.01,'Popcorn Chicken'
0.62,0.23,0.11,0.02,0.01,0,0.01,0,0,0,'Popcorn Chicken'
0.34,0.27,0.15,0.09,0.08,0.04,0.03,0,0,0,'Popcorn Chicken'
0.31,0.28,0.16,0.12,0.04,0.07,0.02,0,0,0,'Popcorn Chicken'
0.34,0.25,0.16,0.11,0.05,0.05,0.02,0.02,0,0,'Popcorn Chicken'
0.37,0.25,0.13,0.11,0.07,0.04,0.02,0.01,0,0,'Popcorn Chicken'
0.51,0.27,0.06,0.02,0.05,0.01,0.03,0.01,0.04,0,'Popcorn Chicken'
0.42,0.32,0.06,0.04,0.05,0.03,0.02,0.04,0.02,0,'Popcorn Chicken'
0.2,0.11,0.11,0.11,0.17,0.11,0.09,0.07,0.02,0.01,'Popcorn Chicken'
0.2,0.21,0.14,0.07,0.09,0.08,0.05,0.09,0.06,0.01,'Popcorn Chicken'
0.17,0.1,0.14,0.09,0.06,0.11,0.1,0.14,0.08,0.01,'Popcorn Chicken'
0.38,0.39,0.09,0.07,0.04,0.01,0.02,0,0,0,'Popcorn Chicken'
0.42,0.23,0.17,0.07,0.04,0.02,0.01,0,0.03,0.01,'Popcorn Chicken'
0.59,0.2,0.15,0.03,0.01,0.01,0,0,0.01,0,'Popcorn Chicken'
0.11,0.1,0.16,0.11,0.15,0.11,0.12,0.12,0.01,0.01,'Popcorn Chicken'
0.33,0.17,0.09,0.12,0.08,0.01,0.07,0.05,0.04,0.04,'Popcorn Chicken'
0.3,0.22,0.09,0.11,0.07,0.04,0.07,0.06,0.03,0.01,'Popcorn Chicken'
0.35,0.32,0.16,0.1,0.03,0.02,0.01,0.01,0,0,'Popcorn Chicken'
0.38,0.33,0.13,0.08,0.03,0.02,0.01,0,0.01,0.01,'Popcorn Chicken'
0.47,0.18,0.12,0.1,0.04,0.02,0.04,0,0.02,0.01,'Popcorn Chicken'
0.23,0.15,0.09,0.13,0.1,0.07,0.12,0.04,0.05,0.02,'Popcorn Chicken'
0.26,0.2,0.14,0.19,0.11,0.07,0.03,0,0,0,'Popcorn Chicken'
0.17,0.24,0.18,0.12,0.12,0.06,0.03,0.04,0.03,0.01,'Popcorn Chicken'
0.33,0.26,0.13,0.08,0.07,0.07,0.03,0.03,0,0,'Popcorn Chicken'
0.26,0.08,0.13,0.15,0.12,0.06,0.09,0.07,0.03,0.01,'Popcorn Chicken'
0.33,0.18,0.12,0.11,0.14,0.05,0.04,0.03,0,0,'Popcorn Chicken'
0.42,0.22,0.17,0.08,0.03,0.03,0.02,0.02,0.01,0,'Popcorn Chicken'
0.49,0.21,0.1,0.1,0.04,0.03,0.01,0.02,0,0,'Popcorn Chicken'
0.36,0.27,0.04,0.12,0.02,0.05,0.07,0.04,0.03,0,'Popcorn Chicken'
0.51,0.2,0.11,0.09,0.07,0,0.01,0,0,0.01,'Popcorn Chicken'
0.46,0.24,0.07,0.06,0.07,0.03,0.04,0.01,0.01,0.01,'Popcorn Chicken'
0.57,0.17,0.07,0.08,0.03,0.03,0.03,0.01,0.01,0,'Popcorn Chicken'
0.65,0.2,0.07,0.07,0.01,0,0,0,0,0,'Popcorn Chicken'
0.42,0.2,0.18,0.06,0.04,0.06,0.03,0,0.01,0,'Popcorn Chicken'
0.29,0.12,0.24,0.12,0.11,0.07,0.03,0.01,0.01,0,'Popcorn Chicken'
0.42,0.19,0.15,0.09,0.07,0.03,0.02,0.02,0.01,0,'Popcorn Chicken'
0.44,0.2,0.16,0.08,0.04,0.03,0.01,0.02,0.01,0.01,'Popcorn Chicken'
0.44,0.19,0.09,0.08,0.1,0.04,0.01,0.04,0.01,0,'Popcorn Chicken'
0.36,0.16,0.11,0.11,0.13,0.08,0.01,0.02,0.02,0,'Popcorn Chicken'
0.54,0.18,0.08,0.1,0.04,0.02,0.02,0.01,0.01,0,'Popcorn Chicken'
0.52,0.13,0.08,0.08,0.09,0.06,0.03,0,0.01,0,'Popcorn Chicken'
0.67,0.11,0.14,0.04,0.03,0,0.01,0,0,0,'Popcorn Chicken'
0.7,0.11,0.11,0.04,0.03,0,0.01,0,0,0,'Popcorn Chicken'
0.48,0.2,0.12,0.13,0.04,0.01,0.01,0,0,0.01,'Popcorn Chicken'
0.63,0.18,0.12,0.03,0.03,0.01,0,0,0,0,'Popcorn Chicken'
0.38,0.26,0.14,0.11,0.06,0.01,0,0,0,0.04,'Popcorn Chicken'
0.38,0.13,0.07,0.04,0.12,0.07,0.14,0.03,0.02,0,'Popcorn Chicken'
0.47,0.11,0.07,0.09,0.13,0.04,0.03,0.03,0.03,0,'Popcorn Chicken'
0.43,0.14,0.17,0.12,0.03,0.04,0.01,0.02,0.01,0.03,'Popcorn Chicken'
0.44,0.23,0.16,0.05,0.03,0.02,0.03,0,0.01,0.03,'Popcorn Chicken'
0.45,0.37,0.07,0.02,0.03,0.02,0.02,0.01,0.01,0,'Popcorn Chicken'
0.11,0.34,0.17,0.15,0.13,0.06,0.03,0.01,0,0,'Popcorn Chicken'
0.16,0.3,0.21,0.09,0.11,0.09,0.02,0.02,0,0,'Popcorn Chicken'
0.56,0.23,0.02,0.03,0.04,0.03,0.05,0.02,0.02,0,'Popcorn Chicken'
0.82,0.07,0.1,0.01,0,0,0,0,0,0,'Popcorn Chicken'
0.69,0.13,0.04,0.01,0,0.05,0.03,0.02,0.03,0,'Popcorn Chicken'
0.34,0.32,0.07,0.11,0.05,0.05,0.02,0.01,0.02,0.01,Puma
0.61,0.23,0.09,0.04,0.02,0.01,0,0,0,0,Puma
0.47,0.2,0.14,0.1,0.03,0.03,0.02,0.01,0,0,'Puma Concolor'
0.19,0.28,0.18,0.19,0.06,0.05,0.05,0,0,0,'Puma Concolor'
0.19,0.51,0.12,0.09,0.02,0.02,0.03,0.01,0.01,0,'Puma Concolor'
0.66,0.21,0.08,0.03,0.01,0,0,0.01,0,0,'Puma Concolor'
0.67,0.19,0.06,0.04,0.02,0.01,0,0.01,0,0,'Puma Concolor'
0.29,0.26,0.18,0.11,0.05,0.05,0,0.04,0.02,0,'Puma Concolor'
0.68,0.19,0.08,0.03,0.01,0.01,0,0,0,0,'Puma Concolor'
0.33,0.26,0.19,0.13,0.02,0.04,0,0,0.01,0.02,'Puma Concolor'
0.32,0.34,0.16,0.1,0.02,0.04,0.01,0.01,0,0,'Puma Concolor'
0.55,0.15,0.12,0.06,0.02,0.03,0.03,0.03,0,0.01,'Puma Concolor'
0.75,0.19,0.02,0.01,0.01,0.01,0,0.01,0,0,Puma
0.09,0.5,0.31,0.03,0.01,0.02,0,0.02,0.01,0.01,'Puma Concolor'
0.3,0.24,0.24,0.15,0.05,0.02,0,0,0,0,'Puma Concolor'
0.72,0.17,0.08,0.03,0,0,0,0,0,0,'Puma Concolor'
0.66,0.21,0.06,0.02,0.03,0,0,0.01,0.01,0,'Puma Concolor'
0.47,0.25,0.1,0.1,0.05,0.02,0.01,0,0,0,'Puma Concolor'
0.66,0.12,0.06,0.07,0.02,0.01,0.04,0.02,0,0,'Puma Concolor'
0.46,0.22,0.1,0.1,0.03,0.04,0.01,0.02,0.02,0,'Puma Concolor'
0.5,0.29,0.12,0.05,0.02,0,0.01,0,0.01,0,'Puma Concolor'
0.64,0.23,0.03,0.01,0.03,0.01,0.02,0.02,0.01,0,'Puma Concolor'
0.17,0.17,0.19,0.14,0.03,0.03,0.06,0,0.12,0.09,'Puma Concolor'
0.61,0.24,0.11,0.01,0.01,0.01,0,0.01,0,0,Puma
0.52,0.14,0.17,0.01,0.02,0.03,0.02,0.04,0.04,0.01,'Puma Concolor'
0.18,0.18,0.18,0.15,0.09,0.05,0.06,0.04,0.05,0.02,Puma
0.33,0.38,0.13,0.07,0.05,0.04,0,0,0,0,Puma
0.14,0.16,0.13,0.08,0.03,0.02,0.09,0.08,0.15,0.12,Puma
0.42,0.24,0.2,0.03,0.07,0.03,0.01,0,0,0,Puma
0.38,0.21,0.16,0.12,0.04,0.03,0.01,0.04,0,0.01,Puma
0.65,0.21,0.04,0.03,0.02,0.02,0.03,0,0,0,Puma
0.4,0.26,0.14,0.07,0.08,0.03,0.02,0,0,0,Puma
0.71,0.2,0.02,0.04,0,0.01,0.01,0,0.01,0,Puma
0.61,0.19,0.09,0.06,0.03,0.01,0,0,0.01,0,Puma
0.56,0.33,0.04,0.01,0.01,0.03,0.01,0,0.01,0,Puma
0.62,0.2,0.08,0.03,0.04,0.01,0,0.01,0.01,0,Puma
0.65,0.17,0.12,0.03,0.01,0,0.01,0,0,0.01,Puma
0.47,0.2,0.23,0.04,0.01,0.04,0.01,0,0,0,Puma
0.4,0.27,0.15,0.07,0.04,0.03,0,0.02,0.01,0.01,Puma
0.7,0.18,0.1,0.01,0.01,0,0,0,0,0,Puma
0.35,0.33,0.14,0.09,0.06,0.03,0,0,0,0,Puma
0.32,0.31,0.17,0.12,0.05,0,0.01,0.01,0.01,0,Puma
0.27,0.17,0.13,0.14,0.06,0.1,0.07,0.05,0.01,0,Puma
0.79,0.05,0.05,0.06,0.04,0,0,0,0.01,0,Puma
0.74,0.17,0.04,0.02,0.02,0.01,0,0,0,0,Puma
0.38,0.24,0.09,0.15,0.04,0.02,0.04,0.04,0,0,Puma
0.44,0.17,0.16,0.08,0.09,0.04,0.01,0,0.01,0,Puma
0.42,0.26,0.12,0.08,0.08,0.02,0.01,0,0.01,0,Puma
0.44,0.35,0.04,0.02,0.01,0.05,0.04,0.03,0.02,0,Puma
0.44,0.24,0.15,0.09,0.04,0.03,0,0,0.01,0,Puma
0.39,0.43,0.1,0.03,0.03,0,0.01,0,0.01,0,Puma
0.45,0.3,0.12,0.05,0,0.04,0.02,0.01,0,0.01,Puma
0.19,0.51,0.12,0.09,0.02,0.02,0.03,0.01,0.01,0,Puma
0.56,0.12,0.09,0.04,0.04,0.01,0.06,0.04,0.02,0.02,Puma
0.65,0.17,0.13,0.04,0,0,0.01,0,0,0,Puma
0.05,0.16,0.22,0.3,0.15,0.06,0.03,0.02,0.01,0,Puma
0.37,0.29,0.16,0.07,0.04,0.03,0.03,0,0.01,0,Puma
0.44,0.25,0.13,0.08,0.04,0.05,0,0,0.01,0,Puma
0.71,0.19,0.04,0.04,0.01,0.01,0,0,0,0,Puma
0.66,0.22,0.09,0.02,0,0,0,0,0.01,0,Puma
0.54,0.23,0.08,0.07,0.03,0,0.04,0,0.01,0,Puma
0.47,0.2,0.24,0.03,0.01,0.04,0.01,0,0,0,Puma
0.46,0.23,0.15,0.08,0.07,0.01,0,0,0,0,Puma
0.4,0.27,0.15,0.07,0.04,0.03,0,0.02,0.01,0.01,Puma
0.82,0.08,0.04,0.04,0.02,0,0,0,0,0,'Puma Concolor'
0.42,0.23,0.16,0.09,0.04,0.05,0,0,0,0.01,Puma
0.24,0.25,0.2,0.08,0.11,0.11,0.01,0,0,0,'Puma Concolor'
0.63,0.25,0.06,0.02,0.02,0,0,0.01,0.01,0,'Puma Concolor'
0.42,0.16,0.17,0.13,0.07,0.02,0.02,0.01,0,0,'Puma Concolor'
0.32,0.31,0.17,0.12,0.05,0,0.01,0.01,0.01,0,'Puma Concolor'
0.06,0.13,0.16,0.17,0.35,0.08,0.01,0.04,0,0,'Puma Concolor'
0.23,0.17,0.25,0.28,0.04,0.02,0,0,0,0.01,'Puma Concolor'
0.2,0.09,0.13,0.32,0.17,0.04,0.02,0.02,0.01,0,'Puma Concolor'
0.93,0.04,0.01,0,0.01,0,0,0.01,0,0,'Puma Concolor'
0.29,0.16,0.12,0.14,0.07,0.08,0.08,0.05,0.01,0,'Puma Concolor'
0.42,0.32,0.11,0.07,0.05,0.01,0.02,0,0,0,'Puma Concolor'
0.78,0.09,0.05,0,0.03,0.01,0.02,0.01,0.01,0,Puma
0.23,0.16,0.15,0.14,0.12,0.15,0.03,0.01,0.01,0,'Puma Concolor'
0.87,0.07,0.02,0.01,0.01,0,0.01,0.01,0,0,'Puma Concolor'
0.66,0.21,0.07,0.01,0.03,0,0.01,0,0.01,0,'Puma Concolor'
0.68,0.19,0.08,0.03,0.01,0.01,0,0,0,0,'Puma Concolor'
0.42,0.15,0.18,0.13,0.07,0.02,0.02,0.01,0,0,'Puma Concolor'
0.5,0.22,0.12,0.07,0.05,0.02,0.02,0,0,0,'Puma Concolor'
0.17,0.17,0.19,0.14,0.03,0.03,0.06,0.01,0.11,0.09,'Puma Concolor'
0.6,0.2,0.1,0.06,0.02,0.01,0.01,0,0,0,'Puma Concolor'
0.39,0.26,0.14,0.08,0.07,0.04,0.02,0,0,0,'Puma Concolor'
0.46,0.34,0.09,0.06,0.01,0.03,0,0,0.01,0,'Puma Concolor'
0.37,0.35,0.14,0.08,0.03,0,0.01,0.02,0,0,Puma
0.48,0.23,0.16,0.05,0.04,0.02,0.01,0,0.01,0,'Puma Concolor'
0.46,0.24,0.17,0.08,0.01,0.01,0,0.01,0.01,0.01,'Puma Concolor'
0.58,0.3,0.05,0.03,0.04,0,0,0,0,0,'Puma Concolor'
0.43,0.47,0.05,0.03,0.01,0,0.01,0,0,0,'Puma Concolor'
0.78,0.05,0.01,0.04,0.04,0.03,0,0.02,0.03,0,'Puma Concolor'
0.37,0.18,0.09,0.18,0.05,0.04,0.04,0.03,0.02,0,'Puma Concolor'
0.63,0.24,0.06,0.05,0.01,0,0.01,0,0,0,'Puma Concolor'
0.41,0.16,0.22,0.11,0.06,0.01,0.02,0.01,0,0,'Puma Concolor'
0.24,0.37,0.27,0.08,0.01,0.01,0.02,0,0,0,'Puma Concolor'
0.35,0.46,0.08,0.03,0.03,0.04,0,0,0.01,0,'Puma Concolor'
0.31,0.35,0.07,0.11,0.05,0.05,0.02,0.01,0.02,0.01,Puma
0.68,0.22,0.04,0.02,0.02,0,0,0.01,0,0.01,'Puma Concolor'
0.56,0.33,0.04,0.01,0.01,0.03,0.01,0,0.01,0,'Puma Concolor'
0.83,0.11,0.02,0.01,0,0.01,0,0.01,0.01,0,'Puma Concolor'
0.7,0.21,0.03,0.02,0.01,0.01,0.01,0,0.01,0,'Puma Concolor'
0.43,0.32,0.1,0.09,0.01,0.02,0.02,0,0.01,0,'Puma Concolor'
0.67,0.23,0.04,0.04,0.01,0.01,0,0,0,0,'Puma Concolor'
0.15,0.37,0.37,0.04,0.04,0.01,0.02,0,0,0,'Puma Concolor'
0.3,0.19,0.16,0.08,0.13,0.06,0.06,0.02,0,0,'Puma Concolor'
0.49,0.26,0.1,0.07,0.03,0.03,0.02,0,0,0,'Puma Concolor'
0.53,0.3,0.08,0.06,0.01,0,0.01,0.01,0,0,'Puma Concolor'
0.47,0.25,0.1,0.1,0.05,0.02,0.01,0,0,0,Puma
0.37,0.21,0.1,0.18,0.08,0.05,0.01,0,0,0,'Puma Concolor'
0.34,0.38,0.19,0.04,0.03,0.01,0,0.01,0,0,'Puma Concolor'
0.35,0.23,0.24,0.1,0.03,0.03,0.01,0.01,0,0,'Puma Concolor'
0.75,0.16,0.01,0.01,0.02,0.02,0.01,0,0.01,0.01,'Puma Concolor'
0.3,0.39,0.08,0.06,0.06,0.04,0.05,0.02,0,0,'Puma Concolor'
0.7,0.18,0.05,0.03,0.03,0,0,0,0.01,0,'Puma Concolor'
0.27,0.12,0.13,0.14,0.21,0.1,0.02,0.01,0,0,'Puma Concolor'
0.61,0.19,0.13,0.03,0.03,0.01,0,0,0,0,'Puma Concolor'
0.31,0.35,0.07,0.11,0.05,0.05,0.02,0.01,0.02,0.01,'Puma Concolor'
0.75,0.16,0.02,0.01,0.01,0.02,0.01,0,0.01,0.01,'Puma Concolor'
0.28,0.37,0.06,0.06,0.07,0.02,0.05,0.05,0.03,0.01,Rohu
0.92,0.05,0.01,0.01,0,0,0,0,0.01,0,Rohu
0.57,0.2,0.09,0.04,0.03,0.01,0.02,0.03,0,0.01,Rohu
0.62,0.2,0.04,0.03,0,0,0.05,0.03,0.02,0.01,Rohu
0.82,0.1,0.01,0.03,0,0.01,0.02,0.01,0,0,Rohu
0.65,0.16,0.07,0.07,0.03,0,0.01,0.01,0,0,Rohu
0.58,0.18,0.06,0.05,0.03,0.01,0.03,0.02,0.02,0.02,Rohu
0.75,0.09,0.05,0.01,0.02,0.01,0.04,0.03,0,0,Rohu
0.72,0.11,0.07,0.02,0.05,0,0.01,0.01,0,0.01,Rohu
0.94,0.02,0.01,0.01,0.01,0,0,0.01,0,0,Rohu
0.64,0.21,0.04,0.03,0.04,0.02,0,0.02,0,0,Rohu
0.69,0.16,0.07,0.05,0.01,0,0.01,0,0.01,0,Rohu
0.43,0.39,0.05,0.03,0.03,0.01,0.03,0.03,0,0,Rohu
0.51,0.32,0.07,0.06,0,0.02,0.02,0,0,0,Rohu
0.7,0.11,0.05,0.03,0.02,0.01,0.04,0.03,0,0.01,Rohu
0.68,0.11,0.04,0.03,0.05,0.02,0.02,0.04,0.01,0,Rohu
0.88,0.05,0.01,0.02,0.01,0.01,0,0.01,0.01,0,Rohu
0.83,0.04,0.04,0.03,0.01,0.01,0.02,0.01,0.01,0,Rohu
0.87,0.02,0.05,0.02,0.01,0.02,0,0,0,0.01,Rohu
0.72,0.15,0.03,0.02,0.02,0.03,0.02,0,0.01,0,Rohu
0.74,0.09,0.07,0.05,0.03,0,0.01,0,0.01,0,Rohu
0.7,0.12,0.04,0.03,0.04,0.02,0.03,0.01,0,0.01,Rohu
0.28,0.48,0.12,0.08,0.02,0,0.01,0,0.01,0,Rohu
0.74,0.1,0.06,0.03,0.02,0,0.02,0.02,0,0.01,Rohu
0.75,0.06,0.01,0.1,0.05,0.02,0.01,0,0,0,Rohu
0.7,0.16,0.04,0,0.02,0.01,0.05,0.01,0.01,0,Rohu
0.78,0.07,0.05,0.03,0.02,0,0.01,0.02,0.02,0,Rohu
0.8,0.06,0.07,0.04,0.01,0.02,0,0,0,0,Rohu
0.88,0.04,0.02,0.02,0,0.01,0.02,0,0.01,0,Rohu
0.82,0.09,0.03,0.02,0.02,0,0.01,0,0.01,0,Rohu
0.81,0.08,0.03,0.02,0,0.01,0.02,0.01,0.02,0,Rohu
0.31,0.49,0.05,0.02,0.05,0.03,0.03,0.01,0.01,0,Rohu
0.49,0.42,0.02,0.01,0.03,0.01,0.01,0,0,0.01,Rohu
0.79,0.05,0.06,0.03,0.05,0,0.01,0,0.01,0,Rohu
0.86,0.07,0.03,0.02,0.01,0,0,0,0.01,0,Rohu
0.81,0.08,0.02,0.02,0.02,0,0.01,0.03,0.01,0,Rohu
0.74,0.11,0.02,0.06,0.02,0,0.02,0.02,0.01,0,Rohu
0.68,0.09,0.09,0.04,0.05,0.02,0.01,0,0,0.02,Rohu
0.78,0.09,0.04,0.02,0.04,0.01,0.01,0.01,0,0,Rohu
0.78,0.09,0.04,0.03,0,0.02,0.02,0.02,0,0,Rohu
0.48,0.45,0.04,0.01,0.02,0,0,0,0,0,Rohu
0.82,0.11,0.03,0.01,0.01,0.01,0,0.01,0,0,Rohu
0.83,0.06,0.03,0.01,0.04,0.01,0,0.01,0.01,0,Rohu
0.89,0.04,0.02,0.01,0.02,0.01,0,0,0,0.01,Rohu
0.8,0.07,0.07,0.02,0.03,0.01,0,0,0,0,Rohu
0.52,0.39,0.04,0.03,0.01,0.01,0,0,0,0,Rohu
0.82,0.05,0.05,0.02,0.02,0.03,0.01,0,0,0,Rohu
0.56,0.2,0.05,0.02,0.03,0.04,0.01,0.01,0.06,0.02,Rohu
0.39,0.32,0.15,0.03,0.03,0.03,0.01,0.03,0.01,0,Rohu
0.85,0.06,0.03,0.02,0.02,0.01,0,0.01,0,0,Rohu
0.82,0.06,0.04,0.03,0,0.03,0,0.02,0,0,Rohu
0.9,0.03,0.02,0.04,0,0,0.01,0,0,0,Rohu
0.83,0.05,0.02,0.02,0.04,0.01,0,0.02,0.01,0,Rohu
0.82,0.07,0.04,0.01,0.01,0.01,0.02,0.01,0.01,0,Rohu
0.8,0.05,0.05,0.04,0.03,0.01,0,0,0.01,0.01,Rohu
0.52,0.25,0.04,0.05,0.05,0.01,0.03,0,0.02,0.03,Rohu
0.84,0.04,0.09,0.02,0.01,0,0,0,0,0,Rohu
0.83,0.06,0.03,0.01,0.04,0.01,0,0.01,0.01,0,Rohu
0.39,0.45,0.05,0.06,0.02,0.01,0.01,0.01,0,0,Rohu
0.23,0.27,0.39,0.04,0.01,0.01,0.03,0.01,0.01,0,Rohu
0.77,0.11,0.03,0.01,0.03,0.03,0.01,0.01,0,0,Rohu
0.82,0.11,0.04,0.01,0.01,0,0,0.01,0,0,Rohu
0.79,0.09,0.03,0.02,0.04,0.01,0.01,0,0.01,0,Rohu
0.54,0.27,0.07,0.03,0.03,0.01,0.02,0.01,0.02,0,Rohu
0.73,0.1,0.06,0,0.04,0.05,0.02,0,0,0,Rohu
0.81,0.09,0.04,0.03,0.01,0,0,0.02,0,0,Rohu
0.78,0.04,0.08,0.04,0.01,0.03,0.01,0,0.01,0,Rohu
0.8,0.06,0.04,0.02,0.02,0.03,0.02,0,0,0.01,Rohu
0.59,0.26,0.01,0.01,0.02,0.04,0.03,0.01,0.03,0,Rohu
0.31,0.3,0.27,0.06,0.04,0.01,0,0.01,0,0,Rohu
0.72,0.07,0.07,0,0.04,0.05,0.01,0.03,0.01,0,Rohu
0.88,0.04,0,0.04,0.02,0.01,0,0.01,0,0,Rohu
0.86,0.07,0.03,0.03,0,0.01,0,0,0,0,Rohu
0.69,0.16,0.05,0.03,0.02,0.01,0.01,0.02,0.01,0,Rohu
0.86,0.05,0.04,0.01,0.01,0.01,0.01,0,0,0.01,Rohu
0.82,0.04,0.02,0.04,0.03,0.02,0.01,0.01,0.01,0,Rohu
0.93,0.04,0.01,0.01,0,0,0,0,0.01,0,Rohu
0.86,0.05,0.02,0.04,0.01,0.01,0.01,0,0,0,Rohu
0.39,0.37,0.09,0.05,0.07,0,0.01,0.01,0,0.01,Rohu
0.57,0.24,0.05,0.04,0.04,0.03,0.02,0.01,0,0,Rohu
0.8,0.06,0.05,0.02,0.02,0.01,0.03,0,0.01,0,Rohu
0.57,0.26,0.05,0.01,0.05,0.04,0.02,0,0,0,Rohu
0.8,0.09,0.05,0,0.01,0.03,0.02,0,0,0,Rohu
0.87,0.02,0.06,0.03,0,0,0,0.01,0.01,0,Rohu
0.75,0.07,0.04,0.04,0.02,0.02,0.03,0.02,0.01,0,Rohu
0.52,0.13,0.05,0.13,0.09,0.01,0,0.03,0.03,0.01,Rohu
0.78,0.07,0.05,0.05,0.04,0,0.01,0,0,0,Rohu
0.84,0.09,0.03,0.01,0,0.02,0,0,0.01,0,Rohu
0.79,0.03,0.03,0.04,0.03,0.03,0.02,0.02,0.01,0,Rohu
0.86,0.05,0.02,0.03,0.01,0.03,0,0,0,0,Rohu
0.52,0.27,0.07,0.04,0.03,0.02,0.03,0.01,0,0.01,Rohu
0.91,0.04,0.01,0.01,0.01,0,0.01,0,0.01,0,Rohu
0.85,0.08,0.03,0.02,0.01,0,0,0,0.01,0,Rohu
0.77,0.11,0.04,0.03,0.01,0.01,0.02,0.01,0,0,Rohu
0.36,0.22,0.17,0.18,0.03,0.02,0.02,0,0,0,Rohu
0.81,0.05,0.04,0.05,0.04,0,0,0,0.01,0,Rohu
0.73,0.07,0.04,0.04,0.08,0.02,0,0.01,0.01,0,Rohu
0.83,0.06,0.03,0.03,0.01,0.01,0.02,0,0.01,0,Rohu
0.44,0.33,0.08,0.05,0.03,0.02,0.03,0.02,0,0,Rohu
0.32,0.43,0.13,0.06,0.02,0.02,0.02,0,0,0,Rohu
0.84,0.07,0.02,0.02,0,0.02,0.01,0.01,0.01,0,Rohu
0.33,0.42,0.16,0.02,0.03,0.03,0,0.01,0,0,Rohu
0.61,0.15,0.05,0.04,0.1,0.05,0,0,0,0,Rohu
0.5,0.16,0.18,0.06,0.05,0.05,0,0,0,0,Rohu
0.28,0.43,0.13,0.06,0.04,0.01,0.03,0.02,0,0,Rohu
0.83,0.1,0.03,0.01,0.01,0,0,0.01,0,0.01,Rohu
0.63,0.22,0.02,0.02,0.03,0.01,0.05,0.02,0,0,Rohu
0.81,0.08,0.04,0.02,0.01,0.03,0,0,0.01,0,Rohu
0.84,0.03,0.03,0.03,0.03,0.02,0.01,0,0.01,0,Rohu
0.7,0.14,0.03,0.02,0.03,0.02,0.03,0.02,0,0.01,Rohu
0.75,0.08,0.06,0.02,0.03,0,0.03,0.02,0.01,0,Rohu
0.86,0.08,0.02,0.03,0,0,0,0,0.01,0,Rohu
0.72,0.12,0.04,0.05,0.03,0.02,0,0,0.01,0.01,Rohu
0.8,0.06,0.03,0.04,0.04,0,0.01,0,0.01,0.01,Rohu
0.8,0.09,0.03,0.04,0.02,0,0,0.01,0.01,0,Rohu
0.93,0.02,0.01,0,0.02,0.01,0.01,0,0,0,Rohu
0.85,0.04,0.02,0.06,0.02,0,0,0,0,0.01,Rohu
0.51,0.25,0.15,0.04,0.02,0.02,0.01,0,0,0,Rohu
0.82,0.05,0.05,0.03,0.02,0.01,0.01,0,0,0.01,Rohu
0.28,0.37,0.06,0.06,0.07,0.02,0.05,0.05,0.03,0.01,Rohu
0.4,0.24,0.15,0.1,0.07,0.02,0.02,0,0,0,'Sand Cat'
0.7,0.16,0.06,0.03,0.02,0.01,0.01,0.01,0,0,'Sand Cat'
0.8,0.09,0.04,0.03,0.01,0,0.02,0,0,0.01,'Sand Cat'
0.69,0.13,0.11,0.05,0,0,0,0.01,0.01,0,'Sand Cat'
0.52,0.27,0.08,0.04,0.01,0.03,0.01,0.04,0,0,'Sand Cat'
0.71,0.17,0.06,0.02,0.03,0,0,0.01,0,0,'Sand Cat'
0.57,0.1,0.08,0.09,0.09,0.02,0.03,0.02,0,0,'Sand Cat'
0.42,0.2,0.1,0.07,0.08,0.09,0.02,0.02,0,0,'Sand Cat'
0.43,0.1,0.22,0.11,0.06,0.06,0,0.02,0,0,'Sand Cat'
0.52,0.22,0.12,0.08,0.02,0.02,0.01,0,0.01,0,'Sand Cat'
0.42,0.32,0.09,0.03,0.04,0.02,0.03,0.03,0.02,0,'Sand Cat'
0.32,0.38,0.16,0.08,0.02,0.02,0.01,0,0.01,0,'Sand Cat'
0.58,0.18,0.08,0.07,0.02,0.03,0,0.02,0.02,0,'Sand Cat'
0.7,0.14,0.09,0.05,0.02,0,0,0,0,0,'Sand Cat'
0.38,0.15,0.23,0.13,0.05,0.01,0,0.02,0.02,0.01,'Sand Cat'
0.48,0.19,0.12,0.07,0.04,0.04,0.03,0.03,0,0,'Sand Cat'
0.7,0.12,0.05,0.05,0.03,0.04,0.01,0,0,0,'Sand Cat'
0.5,0.21,0.08,0.11,0.01,0.01,0,0,0.04,0.04,'Sand Cat'
0.65,0.15,0.1,0.03,0.02,0.02,0.02,0.01,0,0,'Sand Cat'
0.25,0.13,0.16,0.12,0.12,0.1,0.06,0.03,0.03,0,'Sand Cat'
0.1,0.24,0.15,0.11,0.29,0.08,0.02,0.01,0,0,'Sand Cat'
0.34,0.43,0.14,0.04,0.03,0.01,0,0.01,0,0,'Sand Cat'
0.37,0.39,0.15,0.03,0.03,0,0.01,0,0.01,0.01,'Sand Cat'
0.51,0.24,0.1,0.07,0.04,0.04,0,0,0,0,'Sand Cat'
0.5,0.23,0.19,0.06,0.02,0,0,0,0,0,'Sand Cat'
0.37,0.16,0.15,0.1,0.11,0.05,0.03,0.01,0.01,0.01,'Sand Cat'
0.77,0.12,0.09,0.01,0.01,0,0,0,0,0,'Sand Cat'
0.15,0.19,0.22,0.28,0.11,0.02,0.02,0.01,0,0,'Sand Cat'
0.35,0.34,0.18,0.06,0.04,0.01,0.01,0.01,0,0,'Sand Cat'
0.66,0.21,0.06,0.01,0,0,0.01,0.01,0.02,0.02,'Sand Cat'
0.31,0.24,0.31,0.08,0.04,0.02,0,0,0,0,'Sand Cat'
0.6,0.24,0.05,0.01,0.05,0,0.01,0.01,0,0.03,'Sand Cat'
0.5,0.24,0.1,0.04,0.06,0.04,0,0.02,0,0,'Sand Cat'
0.66,0.19,0.06,0.04,0.01,0.01,0,0.01,0.01,0.01,'Sand Cat'
0.49,0.23,0.12,0.06,0.05,0.03,0,0.01,0.01,0,'Sand Cat'
0.37,0.22,0.11,0.1,0.08,0.02,0.01,0.06,0.01,0.02,'Sand Cat'
0.43,0.33,0.08,0.03,0,0.08,0.02,0.01,0,0.02,'Sand Cat'
0.37,0.22,0.11,0.09,0.09,0.02,0.01,0.06,0.01,0.02,'Sand Cat'
0.43,0.3,0.11,0.03,0.03,0.03,0.05,0.01,0.01,0,'Sand Cat'
0.5,0.25,0.11,0.05,0.03,0.04,0.02,0,0,0,'Sand Cat'
0.39,0.21,0.14,0.17,0.04,0.02,0.01,0.02,0,0,'Sand Cat'
0.63,0.13,0.1,0.05,0.04,0.01,0.02,0.02,0,0,'Sand Cat'
0.71,0.19,0.07,0.02,0.01,0,0,0,0,0,'Sand Cat'
0.61,0.19,0.1,0.05,0.02,0.02,0,0.01,0,0,'Sand Cat'
0.39,0.27,0.14,0.12,0.03,0.04,0,0,0.01,0,'Sand Cat'
0.71,0.19,0.08,0.02,0,0,0,0,0,0,'Sand Cat'
0.31,0.21,0.1,0.17,0.13,0.01,0.01,0.01,0.04,0.01,'Sand Cat'
0.59,0.18,0.1,0.05,0.05,0.01,0,0,0.01,0.01,'Sand Cat'
0.37,0.21,0.14,0.13,0.04,0.03,0.02,0.04,0.02,0,'Sand Cat'
0.55,0.26,0.06,0.02,0.06,0.03,0.01,0,0.01,0,'Sand Cat'
0.03,0.11,0.12,0.15,0.1,0.11,0.14,0.22,0.02,0,'Sand Cat'
0.5,0.33,0.05,0.06,0.03,0.02,0,0.01,0,0,'Sand Cat'
0.89,0.06,0.02,0.02,0,0,0,0,0.01,0,'Sand Cat'
0.16,0.27,0.21,0.17,0.08,0.05,0.03,0.02,0.01,0,'Sand Cat'
0.32,0.3,0.19,0.1,0.05,0.02,0.02,0,0,0,'Sand Cat'
0.57,0.16,0.14,0.09,0.03,0,0,0.01,0,0,'Sand Cat'
0.63,0.15,0.11,0.06,0.03,0.02,0,0,0,0,'Sand Cat'
0.55,0.17,0.08,0.05,0.07,0.03,0.02,0.02,0.01,0,'Sand Cat'
0.17,0.27,0.27,0.13,0.08,0.04,0.01,0.01,0.01,0.01,'Sand Cat'
0.5,0.22,0.11,0.08,0.05,0.02,0,0.01,0.01,0,'Sand Cat'
0.28,0.28,0.22,0.14,0.04,0.01,0.02,0.01,0,0,'Sand Cat'
0.65,0.18,0.09,0.04,0.01,0.01,0.01,0.01,0,0,'Sand Cat'
0.59,0.22,0.07,0.04,0.03,0.02,0.01,0.02,0,0,'Sand Cat'
0.33,0.28,0.1,0.11,0.1,0.04,0.01,0.02,0.01,0,'Sand Cat'
0.62,0.19,0.05,0.08,0.03,0.01,0.01,0,0.01,0,'Sand Cat'
0.28,0.31,0.2,0.11,0.03,0.05,0.01,0.01,0,0,'Sand Cat'
0.24,0.25,0.19,0.21,0.04,0.01,0.03,0.02,0.01,0,'Sand Cat'
0.41,0.38,0.06,0.07,0.05,0,0.02,0.01,0,0,'Sand Cat'
0.71,0.18,0.05,0.02,0.03,0,0,0.01,0,0,'Sand Cat'
0.42,0.2,0.15,0.08,0.08,0.03,0.02,0.01,0.01,0,'Sand Cat'
0.42,0.19,0.14,0.09,0.07,0.01,0.01,0.03,0.02,0.02,'Sand Cat'
0.51,0.29,0.02,0.03,0.04,0.02,0.03,0.03,0.02,0.01,'Sand Cat'
0.53,0.27,0.08,0.01,0.06,0.03,0.01,0,0.01,0,'Sand Cat'
0.75,0.2,0.01,0.01,0.02,0.01,0,0,0,0,'Sand Cat'
0.66,0.21,0.07,0.05,0.01,0,0,0,0,0,'Sand Cat'
0.76,0.13,0.01,0.02,0.01,0.03,0.01,0.01,0.01,0.01,'Sand Cat'
0.36,0.23,0.11,0.17,0.04,0.01,0.02,0.01,0.02,0.03,'Sand Cat'
0.3,0.22,0.17,0.15,0.09,0.02,0.04,0.01,0,0,'Sand Cat'
0.51,0.26,0.15,0.04,0,0.01,0.01,0,0.02,0,'Sand Cat'
0.22,0.21,0.19,0.18,0.1,0.06,0.01,0.03,0,0,'Sand Cat'
0.54,0.19,0.15,0.1,0,0.02,0,0,0,0,'Sand Cat'
0.46,0.26,0.16,0.07,0.03,0,0,0.01,0.01,0,'Sand Cat'
0.59,0.22,0.06,0.05,0.05,0.02,0.01,0,0,0,'Sand Cat'
0.81,0.1,0.04,0.02,0.01,0.01,0,0.01,0,0,'Sand Cat'
0.65,0.18,0.07,0.04,0.01,0.04,0,0.01,0,0,'Sand Cat'
0.37,0.22,0.14,0.12,0.06,0.04,0.02,0.01,0.02,0,'Sand Cat'
0.51,0.22,0.1,0.03,0.08,0.04,0,0.02,0,0,'Sand Cat'
0.53,0.31,0.07,0.04,0.01,0.01,0,0.01,0.01,0.01,'Sand Cat'
0.65,0.2,0.02,0.02,0.06,0.03,0,0,0.01,0.01,'Sand Cat'
0.51,0.16,0.07,0.04,0.1,0.08,0.02,0.01,0.01,0,'Sand Cat'
0.71,0.18,0.06,0.01,0.02,0.01,0,0.01,0,0,'Sand Cat'
0.57,0.22,0.15,0.04,0.01,0,0,0,0.01,0,'Sand Cat'
0.78,0.09,0.05,0.03,0.02,0.02,0,0.01,0,0,'Sand Cat'
0.29,0.15,0.18,0.1,0.08,0.03,0.06,0.04,0.04,0.03,'Sand Cat'
0.31,0.35,0.21,0.06,0.02,0.01,0.01,0.01,0.02,0,'Sand Cat'
0.22,0.21,0.15,0.15,0.17,0.03,0.06,0.01,0,0,'Sand Cat'
0.13,0.54,0.05,0.04,0.1,0.05,0.06,0.02,0.01,0,'Sand Cat'
0.75,0.17,0.06,0,0.01,0.01,0,0,0,0,'Sand Cat'
0.27,0.15,0.15,0.13,0.26,0.03,0.01,0,0,0,'Sand Cat'
0.78,0.11,0.06,0.01,0.03,0.01,0,0,0,0,'Sand Cat'
0.62,0.24,0.1,0.04,0,0,0,0,0,0,'Sand Cat'
0.49,0.19,0.11,0.12,0.04,0.04,0,0.01,0,0,'Sand Cat'
0.52,0.25,0.07,0.07,0.05,0,0,0.02,0.01,0.01,'Sand Cat'
0.37,0.27,0.17,0.11,0.03,0.03,0.02,0,0,0,'Sand Cat'
0.48,0.25,0.1,0.05,0.05,0.03,0.04,0,0,0,'Sand Cat'
0.28,0.14,0.18,0.22,0.06,0.01,0.04,0.03,0.03,0.01,'Sand Cat'
0.3,0.31,0.16,0.1,0.06,0.04,0.02,0.01,0,0,'Sand Cat'
0.34,0.43,0.14,0.04,0.03,0.01,0,0.01,0,0,'Sand Cat'
0.37,0.25,0.23,0.07,0.03,0.01,0.02,0.01,0,0.01,'Sand Cat'
0.66,0.13,0.09,0.05,0.02,0,0.03,0.01,0.01,0,'Sand Cat'
0.24,0.31,0.21,0.17,0.04,0.03,0,0,0,0,'Sand Cat'
0.35,0.24,0.14,0.15,0.06,0.02,0.03,0.01,0,0,'Sand Cat'
0.21,0.54,0.07,0.07,0.01,0.05,0.01,0.02,0.02,0,'Sand Cat'
0.56,0.12,0.12,0.13,0.01,0,0.02,0,0.02,0.02,'Sand Cat'
0.63,0.24,0.04,0.04,0.03,0,0,0.02,0,0,'Sand Cat'
0.37,0.26,0.18,0.05,0.04,0.05,0.02,0.01,0.01,0.01,'Sand Cat'
0.18,0.49,0.18,0.08,0.05,0,0,0,0.02,0,'Sand Cat'
0.31,0.23,0.19,0.1,0.12,0.04,0.01,0,0,0,'Sand Cat'
0.5,0.33,0.05,0.06,0.03,0.01,0.01,0.01,0,0,'Sand Cat'
0.54,0.25,0.05,0.06,0.05,0.02,0.01,0.01,0.01,0,'Sand Cat'
0.95,0.01,0,0.01,0.02,0.01,0,0,0,0,'Silver Carp'
0.85,0.07,0.03,0.01,0.03,0,0.01,0,0,0,'Silver Carp'
0.82,0.05,0.04,0.03,0.02,0.01,0,0.01,0.02,0,'Silver Carp'
0.77,0.06,0.06,0.06,0.03,0,0,0.01,0.01,0,'Silver Carp'
0.86,0.05,0.05,0.02,0.01,0,0,0.01,0,0,'Silver Carp'
0.75,0.08,0.05,0.05,0.01,0.02,0.03,0.01,0,0,'Silver Carp'
0.79,0.06,0.06,0.04,0.03,0.01,0,0.01,0,0,'Silver Carp'
0.84,0.05,0.04,0.02,0,0.02,0.01,0.02,0,0,'Silver Carp'
0.8,0.05,0.03,0.03,0.02,0.04,0.02,0.01,0,0,'Silver Carp'
0.85,0.03,0.06,0.04,0.01,0,0,0.01,0,0,'Silver Carp'
0.85,0.05,0.04,0.02,0.03,0,0,0.01,0,0,'Silver Carp'
0.63,0.22,0.03,0.04,0.04,0.02,0.01,0.01,0,0,'Silver Carp'
0.89,0.05,0.03,0.02,0,0.01,0,0,0,0,'Silver Carp'
0.79,0.05,0.07,0.02,0.04,0.02,0,0,0.01,0,'Silver Carp'
0.87,0.06,0.02,0.02,0.01,0.01,0,0.01,0,0,'Silver Carp'
0.82,0.05,0.05,0.03,0.05,0,0,0,0,0,'Silver Carp'
0.82,0.08,0.03,0.04,0,0.02,0,0,0.01,0,'Silver Carp'
0.87,0.05,0.02,0.02,0.01,0.03,0,0,0,0,'Silver Carp'
0.8,0.1,0.03,0.01,0.04,0.01,0.01,0,0,0,'Silver Carp'
0.69,0.18,0.03,0.02,0.02,0.02,0.01,0.02,0,0.01,'Silver Carp'
0.83,0.12,0.01,0.02,0.01,0.01,0,0,0,0,'Silver Carp'
0.83,0.05,0.02,0.03,0.02,0.04,0,0.01,0,0,'Silver Carp'
0.78,0.1,0.06,0.03,0.02,0,0,0.01,0,0,'Silver Carp'
0.87,0.06,0.05,0.01,0,0.01,0,0,0,0,'Silver Carp'
0.78,0.07,0.06,0.04,0,0.01,0.02,0.02,0,0,'Silver Carp'
0.83,0.11,0.02,0,0.02,0.02,0,0,0,0,'Silver Carp'
0.82,0.04,0.06,0.03,0.01,0.02,0,0.01,0.01,0,'Silver Carp'
0.73,0.18,0.03,0.04,0.01,0,0.01,0,0,0,'Silver Carp'
0.92,0.03,0.02,0,0.01,0.01,0,0,0.01,0,'Silver Carp'
0.88,0.07,0,0.01,0.03,0,0.01,0,0,0,'Silver Carp'
0.79,0.04,0.06,0.06,0.04,0,0,0.01,0,0,'Silver Carp'
0.82,0.07,0.04,0.04,0.01,0.01,0.01,0,0,0,'Silver Carp'
0.82,0.08,0.04,0.02,0.02,0,0,0.01,0.01,0,'Silver Carp'
0.85,0.06,0.02,0.01,0.02,0,0.02,0.01,0,0.01,'Silver Carp'
0.79,0.07,0.07,0,0.02,0.02,0,0.02,0.01,0,'Silver Carp'
0.83,0.08,0.05,0.02,0.01,0.01,0,0,0,0,'Silver Carp'
0.87,0.05,0.02,0.02,0.02,0.01,0,0,0.01,0,'Silver Carp'
0.83,0.06,0,0.04,0.02,0.02,0.02,0.01,0,0,'Silver Carp'
0.83,0.08,0.02,0.02,0.02,0.01,0.01,0,0.01,0,'Silver Carp'
0.8,0.11,0.02,0.03,0.01,0.01,0.01,0.01,0,0,'Silver Carp'
0.82,0.05,0.04,0.03,0.02,0.01,0,0.01,0.02,0,'Silver Carp'
0.84,0.09,0.01,0.03,0.01,0,0.01,0.01,0,0,'Silver Carp'
0.91,0.05,0.01,0.02,0,0,0.01,0,0,0,'Silver Carp'
0.88,0.02,0.05,0.02,0.01,0.01,0,0,0.01,0,'Silver Carp'
0.85,0.09,0.02,0.01,0.02,0,0.01,0,0,0,'Silver Carp'
0.73,0.23,0.01,0.02,0.01,0,0,0,0,0,'Silver Carp'
0.88,0.02,0.03,0.02,0.01,0.02,0.01,0,0.01,0,'Silver Carp'
0.89,0.04,0.01,0.04,0,0.01,0.01,0,0,0,'Silver Carp'
0.63,0.26,0.03,0.04,0.01,0,0.03,0,0,0,'Silver Carp'
0.82,0.1,0.04,0,0.03,0,0,0,0.01,0,'Silver Carp'
0.87,0.06,0.02,0.02,0.02,0,0.01,0,0,0,'Silver Carp'
0.71,0.16,0.05,0.04,0.01,0.02,0,0,0.01,0,'Silver Carp'
0.91,0.05,0.01,0,0.01,0.01,0,0.01,0,0,'Silver Carp'
0.82,0.07,0.06,0.01,0.01,0.01,0.01,0,0,0.01,'Silver Carp'
0.86,0.06,0.03,0.03,0.01,0,0,0.01,0,0,'Silver Carp'
0.86,0.05,0.03,0.01,0.02,0.02,0.01,0,0,0,'Silver Carp'
0.79,0.08,0.06,0.03,0.01,0,0.01,0.01,0.01,0,'Silver Carp'
0.85,0.04,0.03,0.02,0.02,0.01,0.02,0,0,0.01,'Silver Carp'
0.89,0.08,0,0.02,0,0.01,0,0,0,0,'Silver Carp'
0.86,0.03,0.04,0.02,0,0.02,0.02,0,0.01,0,'Silver Carp'
0.78,0.12,0.05,0.01,0.02,0,0.01,0.01,0,0,'Silver Carp'
0.85,0.05,0.03,0.01,0.03,0,0.01,0.02,0,0,'Silver Carp'
0.83,0.06,0,0.04,0.02,0.04,0,0.01,0,0,'Silver Carp'
0.78,0.13,0.04,0.01,0.02,0,0.01,0.01,0,0,'Silver Carp'
0.83,0.05,0.04,0.04,0.02,0,0.02,0,0,0,'Silver Carp'
0.84,0.07,0.03,0.03,0.02,0,0.01,0,0,0,'Silver Carp'
0.8,0.17,0,0,0.02,0.01,0,0,0,0,'Silver Carp'
0.79,0.1,0.06,0.03,0.01,0.01,0,0,0,0,'Silver Carp'
0.84,0.07,0.03,0.04,0,0.02,0,0,0,0,'Silver Carp'
0.82,0.06,0.04,0.02,0.02,0.01,0.01,0,0.02,0,'Silver Carp'
0.72,0.1,0.04,0.05,0.01,0.03,0.03,0.01,0.01,0,'Silver Carp'
0.58,0.25,0.05,0.03,0.02,0.02,0.03,0,0.01,0.01,'Silver Carp'
0.8,0.1,0.08,0,0.01,0.01,0,0,0,0,'Silver Carp'
0.88,0.06,0.03,0.01,0.01,0,0.01,0,0,0,'Silver Carp'
0.83,0.06,0.02,0.02,0.02,0.02,0.01,0.01,0,0.01,'Silver Carp'
0.82,0.07,0.02,0.02,0.04,0.01,0.01,0,0,0.01,'Silver Carp'
0.8,0.1,0.03,0.02,0.01,0.02,0.01,0,0.01,0,'Silver Carp'
0.64,0.18,0.12,0.02,0.02,0,0.01,0,0.01,0,'Silver Carp'
0.85,0.06,0.04,0.03,0,0.01,0.01,0,0,0,'Silver Carp'
0.79,0.04,0.05,0.06,0.03,0,0.01,0,0.02,0,'Silver Carp'
0.85,0.06,0.02,0.03,0.02,0.01,0,0,0.01,0,'Silver Carp'
0.92,0.05,0.02,0,0,0,0,0.01,0,0,'Silver Carp'
0.84,0.09,0.05,0.01,0.01,0,0,0,0,0,'Silver Carp'
0.92,0.02,0.03,0.01,0.01,0.01,0,0,0,0,'Silver Carp'
0.86,0.03,0.04,0.02,0,0.02,0.02,0,0.01,0,'Silver Carp'
0.87,0.05,0.01,0.03,0.02,0.01,0,0,0.01,0,'Silver Carp'
0.87,0.07,0.01,0.02,0,0.02,0,0.01,0,0,'Silver Carp'
0.9,0.05,0.02,0.02,0,0,0.01,0,0,0,'Silver Carp'
0.72,0.14,0.06,0.01,0.01,0.03,0.01,0.01,0.01,0,'Silver Carp'
0.83,0.06,0.03,0.03,0.02,0.01,0.01,0.01,0,0,'Silver Carp'
0.79,0.07,0.03,0.07,0.02,0.02,0,0,0,0,'Silver Carp'
0.82,0.06,0.05,0.02,0.02,0.01,0.02,0,0,0,'Silver Carp'
0.86,0.06,0.01,0,0.03,0.01,0.02,0,0.01,0,'Silver Carp'
0.85,0.06,0.03,0.03,0.02,0,0.01,0,0,0,'Silver Carp'
0.9,0.02,0.05,0.01,0.01,0,0.01,0,0,0,'Silver Carp'
0.79,0.11,0.01,0.03,0.03,0.01,0,0.01,0.01,0,'Silver Carp'
0.85,0.06,0.03,0.04,0,0.01,0.01,0,0,0,'Silver Carp'
0.8,0.08,0.09,0.01,0,0.02,0,0,0,0,'Silver Carp'
0.75,0.14,0.05,0.01,0.01,0.02,0,0.01,0.01,0,'Silver Carp'
0.85,0.06,0.04,0.03,0.01,0.01,0,0,0,0,'Silver Carp'
0.83,0.09,0.04,0.02,0,0,0.01,0,0.01,0,'Silver Carp'
0.76,0.1,0.08,0.01,0,0,0.02,0.01,0.02,0,'Silver Carp'
0.62,0.23,0.01,0.03,0.01,0.04,0.03,0.02,0.01,0,'Silver Carp'
0.91,0.03,0.01,0.01,0.02,0.01,0,0.01,0,0,'Silver Carp'
0.84,0.07,0.02,0.03,0,0.01,0.02,0.01,0,0,'Silver Carp'
0.72,0.2,0.02,0.01,0.02,0.02,0,0.01,0,0,'Silver Carp'
0.76,0.11,0.03,0.04,0.03,0.01,0.01,0.01,0,0,'Silver Carp'
0.77,0.09,0.08,0.03,0,0.02,0,0.01,0,0,'Silver Carp'
0.87,0.06,0.01,0.03,0.01,0.01,0,0.01,0,0,'Silver Carp'
0.79,0.07,0.05,0.02,0.04,0.01,0,0,0.02,0,'Silver Carp'
0.78,0.11,0.01,0.04,0.03,0.01,0,0.02,0,0,'Silver Carp'
0.81,0.09,0.04,0.02,0.02,0,0.01,0.01,0,0,'Silver Carp'
0.8,0.05,0.03,0.04,0.02,0.04,0.01,0.01,0,0,'Silver Carp'
0.8,0.13,0.02,0.02,0,0.02,0.01,0,0,0,'Silver Carp'
0.78,0.09,0.04,0.01,0.04,0.01,0.01,0.01,0.01,0,'Silver Carp'
0.82,0.05,0.05,0.01,0.03,0.01,0.01,0.01,0.01,0,'Silver Carp'
0.83,0.05,0.02,0.03,0.02,0.04,0,0.01,0,0,'Silver Carp'
0.72,0.09,0.09,0.05,0.01,0,0.01,0.01,0.02,0,'Silver Carp'
0.89,0.08,0,0.02,0,0.01,0,0,0,0,'Silver Carp'
0.85,0.01,0.07,0.03,0,0.02,0,0.01,0.01,0,'Silver Carp'
0.52,0.26,0.05,0.04,0.02,0.02,0.03,0.02,0.03,0.01,'Striped Catfish'
0.74,0.19,0.04,0,0.01,0.02,0,0,0,0,'Striped Catfish'
0.79,0.08,0.04,0.03,0.02,0,0.02,0.01,0.01,0,'Striped Catfish'
0.91,0.06,0.02,0.01,0,0,0,0,0,0,'Striped Catfish'
0.88,0.03,0.02,0.02,0,0.02,0,0.02,0.01,0,'Striped Catfish'
0.86,0.06,0.01,0.02,0.02,0.02,0,0.01,0,0,'Striped Catfish'
0.69,0.19,0.03,0.03,0.03,0.03,0,0,0,0,'Striped Catfish'
0.54,0.27,0.04,0.05,0.04,0.01,0.02,0.01,0.01,0.01,'Striped Catfish'
0.72,0.17,0.05,0.04,0.02,0,0,0,0,0,'Striped Catfish'
0.38,0.3,0.1,0.09,0.03,0.02,0.01,0.02,0.03,0.02,'Striped Catfish'
0.66,0.14,0.04,0.04,0.02,0.02,0.04,0.03,0.01,0,'Striped Catfish'
0.72,0.18,0.07,0.02,0.01,0,0,0,0,0,'Striped Catfish'
0.85,0.06,0.01,0.03,0.03,0.01,0,0,0.01,0,'Striped Catfish'
0.91,0.04,0.05,0,0,0,0,0,0,0,'Striped Catfish'
0.76,0.14,0.05,0,0.02,0.01,0,0.01,0,0.01,'Striped Catfish'
0.55,0.27,0.08,0.01,0.03,0.01,0.03,0.01,0.01,0,'Striped Catfish'
0.75,0.11,0.03,0.04,0.03,0.04,0,0,0,0,'Striped Catfish'
0.86,0.04,0.01,0.01,0.01,0.01,0.02,0.01,0.03,0,'Striped Catfish'
0.82,0.08,0.02,0.03,0.01,0.01,0.01,0.01,0.01,0,'Striped Catfish'
0.55,0.25,0.04,0.04,0.02,0.03,0.03,0.02,0.02,0,'Striped Catfish'
0.73,0.13,0.07,0.02,0.04,0,0.01,0,0,0,'Striped Catfish'
0.93,0.05,0.02,0,0,0,0,0,0,0,'Striped Catfish'
0.82,0.04,0.04,0,0.01,0.02,0.02,0.03,0.02,0,'Striped Catfish'
0.82,0.08,0.01,0.03,0.02,0.01,0.01,0.02,0,0,'Striped Catfish'
0.84,0.05,0.05,0.02,0.02,0,0.02,0,0,0,'Striped Catfish'
0.85,0.08,0.02,0.03,0,0.02,0,0,0,0,'Striped Catfish'
0.36,0.3,0.12,0.07,0.04,0.03,0.02,0,0.03,0.03,'Striped Catfish'
0.84,0.09,0.03,0.01,0,0.02,0,0.01,0,0,'Striped Catfish'
0.87,0.05,0.04,0.01,0.01,0.01,0,0.01,0,0,'Striped Catfish'
0.83,0.1,0.03,0.01,0.03,0,0,0,0,0,'Striped Catfish'
0.85,0.07,0.04,0.02,0.01,0,0.01,0,0,0,'Striped Catfish'
0.9,0.08,0.01,0.01,0,0,0,0,0,0,'Striped Catfish'
0.85,0.03,0.06,0.03,0.01,0,0.01,0,0.01,0,'Striped Catfish'
0.87,0.05,0.02,0.03,0.01,0.02,0,0,0,0,'Striped Catfish'
0.86,0.08,0,0.01,0.01,0.01,0.01,0.01,0,0.01,'Striped Catfish'
0.84,0.04,0.01,0.04,0.01,0,0.03,0.02,0.01,0,'Striped Catfish'
0.85,0.07,0.05,0.01,0.01,0,0,0,0.01,0,'Striped Catfish'
0.83,0.07,0.06,0.02,0.01,0,0.01,0,0,0,'Striped Catfish'
0.7,0.19,0.02,0.01,0.03,0.01,0.02,0,0.02,0,'Striped Catfish'
0.81,0.06,0.03,0.03,0.02,0.03,0,0.01,0.01,0,'Striped Catfish'
0.83,0.07,0.03,0.02,0.02,0.02,0,0.01,0,0,'Striped Catfish'
0.84,0.07,0.03,0.04,0.01,0,0,0.01,0,0,'Striped Catfish'
0.81,0.07,0.03,0,0.02,0.02,0.02,0,0.02,0.01,'Striped Catfish'
0.73,0.15,0.02,0.02,0.02,0.01,0,0.01,0.02,0.02,'Striped Catfish'
0.88,0.05,0.01,0.04,0.01,0,0,0.01,0,0,'Striped Catfish'
0.61,0.26,0.04,0.02,0.02,0.03,0,0.01,0.01,0,'Striped Catfish'
0.82,0.08,0.03,0.01,0.02,0.02,0.02,0,0,0,'Striped Catfish'
0.88,0.06,0.01,0.01,0.01,0.01,0.01,0.01,0,0,'Striped Catfish'
0.7,0.14,0.04,0.02,0.03,0.02,0.02,0.02,0.01,0,'Striped Catfish'
0.69,0.17,0.05,0.04,0.01,0.03,0,0,0.01,0,'Striped Catfish'
0.77,0.14,0.03,0,0,0.01,0.02,0,0.01,0.02,'Striped Catfish'
0.88,0.05,0.03,0,0.01,0,0.02,0,0,0.01,'Striped Catfish'
0.81,0.05,0.03,0,0.03,0.03,0.04,0.01,0,0,'Striped Catfish'
0.86,0.05,0.03,0.03,0.03,0,0,0,0,0,'Striped Catfish'
0.78,0.11,0.03,0.01,0,0,0.02,0.02,0.02,0.01,'Striped Catfish'
0.7,0.19,0.07,0.01,0.01,0.01,0,0,0.01,0,'Striped Catfish'
0.85,0.07,0.02,0.04,0.01,0,0,0,0.01,0,'Striped Catfish'
0.79,0.11,0.03,0.03,0,0,0.03,0.01,0,0,'Striped Catfish'
0.86,0.06,0.03,0.01,0.01,0.01,0.01,0.01,0,0,'Striped Catfish'
0.77,0.07,0.05,0.01,0.05,0.02,0,0,0.01,0.02,'Striped Catfish'
0.86,0.04,0.02,0.01,0.01,0.02,0,0.04,0,0,'Striped Catfish'
0.91,0.04,0.03,0,0,0.01,0,0.01,0,0,'Striped Catfish'
0.77,0.13,0.04,0.01,0.03,0,0.01,0,0,0.01,'Striped Catfish'
0.9,0.05,0.01,0.02,0,0.01,0,0.01,0,0,'Striped Catfish'
0.67,0.1,0.05,0.02,0.04,0.05,0.03,0.03,0.01,0,'Striped Catfish'
0.54,0.2,0.12,0.06,0.04,0.02,0.01,0.01,0,0,'Striped Catfish'
0.8,0.09,0.04,0.04,0.02,0,0.01,0,0,0,'Striped Catfish'
0.88,0.07,0.02,0.01,0,0.01,0.01,0,0,0,'Striped Catfish'
0.43,0.31,0.13,0.04,0.02,0.02,0.02,0.01,0.01,0.01,'Striped Catfish'
0.81,0.04,0.02,0.01,0,0.03,0,0.04,0.01,0.04,'Striped Catfish'
0.81,0.09,0.04,0.01,0.02,0,0,0.01,0,0.02,'Striped Catfish'
0.8,0.06,0.07,0,0.02,0,0.02,0,0.03,0,'Striped Catfish'
0.86,0.05,0.05,0.01,0.01,0.01,0.01,0,0,0,'Striped Catfish'
0.88,0.06,0.03,0.01,0.01,0,0.01,0,0,0,'Striped Catfish'
0.56,0.26,0.03,0.03,0.04,0.04,0.01,0.02,0.01,0,'Striped Catfish'
0.7,0.1,0.06,0.03,0.04,0.04,0.01,0,0.01,0.01,'Striped Catfish'
0.91,0.03,0.04,0,0,0.01,0,0.01,0,0,'Striped Catfish'
0.86,0.06,0.02,0.03,0.02,0,0.01,0,0,0,'Striped Catfish'
0.84,0.08,0.01,0.02,0.01,0.01,0.02,0.01,0,0,'Striped Catfish'
0.81,0.06,0.03,0.02,0.05,0.02,0.01,0,0,0,'Striped Catfish'
0.77,0.07,0.06,0.05,0.01,0,0,0.02,0,0.02,'Striped Catfish'
0.83,0.09,0.03,0.02,0.02,0,0,0.01,0,0,'Striped Catfish'
0.93,0.06,0,0.01,0,0,0,0,0,0,'Striped Catfish'
0.81,0.07,0.06,0.03,0.01,0,0.01,0,0.01,0,'Striped Catfish'
0.67,0.16,0.06,0.02,0.02,0.04,0.01,0.02,0,0,'Striped Catfish'
0.43,0.22,0.13,0.05,0.03,0.05,0.01,0.05,0.01,0.02,'Striped Catfish'
0.87,0.04,0.02,0,0.03,0,0.01,0.03,0,0,'Striped Catfish'
0.84,0.07,0.02,0.01,0.01,0,0.01,0.02,0.02,0,'Striped Catfish'
0.79,0.09,0.01,0.01,0,0.03,0.01,0.01,0.01,0.04,'Striped Catfish'
0.85,0.06,0.04,0.02,0.01,0.01,0,0,0.01,0,'Striped Catfish'
0.9,0.05,0.02,0.02,0.01,0,0,0,0,0,'Striped Catfish'
0.72,0.13,0.03,0.02,0.05,0.01,0.02,0,0,0.02,'Striped Catfish'
0.86,0.07,0.02,0.01,0.01,0.01,0.01,0,0.01,0,'Striped Catfish'
0.62,0.13,0.09,0.04,0.03,0.02,0.01,0.03,0.03,0,'Striped Catfish'
0.91,0.04,0.01,0,0.02,0,0.01,0,0,0.01,'Striped Catfish'
0.72,0.12,0.04,0.03,0.01,0,0.01,0.04,0.02,0.01,'Striped Catfish'
0.85,0.08,0.02,0.01,0.02,0,0,0,0.01,0.01,'Striped Catfish'
0.82,0.06,0.07,0.01,0.03,0.01,0,0,0,0,'Striped Catfish'
0.85,0.08,0.01,0,0,0.01,0,0.01,0.02,0.02,'Striped Catfish'
0.77,0.1,0.02,0.01,0.01,0.02,0.01,0.01,0.04,0.01,'Striped Catfish'
0.8,0.09,0.04,0.03,0,0.01,0,0.01,0.01,0.01,'Striped Catfish'
0.82,0.12,0.03,0.01,0.02,0,0,0,0,0,'Striped Catfish'
0.85,0.08,0.05,0.01,0,0.01,0,0,0,0,'Striped Catfish'
0.9,0.02,0.03,0.01,0.01,0,0.01,0,0.01,0.01,'Striped Catfish'
0.78,0.04,0.04,0.05,0.02,0.01,0.02,0.02,0.01,0.01,'Striped Catfish'
0.86,0.06,0.03,0.01,0.02,0.01,0,0.01,0,0,'Striped Catfish'
0.61,0.23,0.02,0.05,0.01,0.01,0.02,0.01,0.02,0.02,'Striped Catfish'
0.86,0.07,0.04,0.02,0.01,0,0,0,0,0,'Striped Catfish'
0.87,0.09,0.03,0,0.01,0,0,0,0,0,'Striped Catfish'
0.87,0.05,0.01,0.02,0.01,0.02,0.01,0,0,0.01,'Striped Catfish'
0.83,0.1,0.04,0.01,0,0.02,0,0,0,0,'Striped Catfish'
0.79,0.07,0.02,0.03,0.03,0,0.03,0,0.03,0,'Striped Catfish'
0.79,0.09,0.04,0.03,0.01,0,0.02,0.02,0,0,'Striped Catfish'
0.83,0.08,0.04,0.03,0,0.01,0,0.01,0,0,'Striped Catfish'
0.62,0.21,0.04,0.06,0.01,0.02,0.03,0.01,0,0,'Striped Catfish'
0.81,0.06,0.05,0.01,0,0.04,0.01,0.01,0,0.01,'Striped Catfish'
0.76,0.08,0.03,0.03,0.04,0.02,0.01,0.01,0.02,0,'Striped Catfish'
0.72,0.08,0.06,0.06,0.03,0.01,0.03,0,0.01,0,'Striped Catfish'
0.84,0.05,0.03,0.03,0.03,0,0.02,0,0,0,'Striped Catfish'
0.75,0.09,0.06,0.03,0.01,0.02,0.01,0.01,0.01,0.01,'Striped Catfish'
0.27,0.33,0.19,0.07,0.1,0.03,0.01,0,0,0,Tiger
0.6,0.24,0.09,0.03,0.02,0.01,0,0.01,0,0,Tiger
0.33,0.39,0.13,0.07,0.05,0.02,0.01,0,0,0,Tiger
0.57,0.11,0.17,0.09,0.02,0,0.01,0.01,0.02,0,Tiger
0.46,0.39,0.02,0.04,0.04,0.04,0.01,0,0,0,Tiger
0.37,0.24,0.24,0.09,0.06,0,0,0,0,0,Tiger
0.47,0.15,0.29,0.03,0.03,0,0.01,0.01,0.01,0,Tiger
0.22,0.17,0.11,0.04,0.09,0.1,0.13,0.1,0.02,0.02,Tiger
0.72,0.09,0.11,0.04,0.03,0,0.01,0,0,0,Tiger
0.26,0.35,0.24,0.09,0.03,0.02,0,0.01,0,0,Tiger
0.34,0.26,0.22,0.08,0.04,0.04,0.02,0,0,0,Tiger
0.55,0.2,0.13,0.08,0.03,0.01,0,0,0,0,Tiger
0.55,0.21,0.07,0.03,0.06,0.03,0.01,0.01,0.02,0.01,Tiger
0.47,0.36,0.04,0.04,0.04,0.02,0,0.02,0.01,0,Tiger
0.65,0.22,0.04,0.06,0.01,0.01,0,0,0,0.01,Tiger
0.22,0.13,0.19,0.18,0.05,0.06,0.04,0.03,0.02,0.08,Tiger
0.79,0.06,0.05,0.03,0.05,0.01,0,0.01,0,0,Tiger
0.7,0.17,0.07,0.03,0.02,0,0,0.01,0,0,Tiger
0.45,0.32,0.13,0.08,0.01,0,0,0.01,0,0,Tiger
0.42,0.22,0.15,0.07,0.03,0.04,0.03,0.01,0.02,0.01,Tiger
0.42,0.23,0.11,0.15,0.04,0.04,0,0,0,0.01,Tiger
0.21,0.24,0.06,0.09,0.04,0.18,0.12,0.02,0.04,0,Tiger
0.52,0.26,0.07,0.06,0.03,0.01,0.03,0.02,0,0,Tiger
0.76,0.11,0.03,0.01,0.02,0.03,0.02,0.01,0,0.01,Tiger
0.24,0.28,0.29,0.1,0.04,0.02,0.01,0.01,0.01,0,Tiger
0.34,0.23,0.2,0.1,0.07,0.04,0.02,0,0,0,Tiger
0.19,0.17,0.17,0.16,0.17,0.05,0.06,0.02,0.01,0,Tiger
0.55,0.26,0.07,0.09,0,0.01,0.01,0.01,0,0,Tiger
0.28,0.35,0.2,0.03,0.04,0.06,0.03,0.01,0,0,Tiger
0.39,0.35,0.17,0.04,0.01,0.02,0.01,0.01,0,0,Tiger
0.37,0.22,0.23,0.09,0.06,0.03,0,0,0,0,Tiger
0.48,0.21,0.13,0.06,0.03,0.06,0.01,0.01,0.01,0,Tiger
0.59,0.24,0.13,0.02,0,0.01,0,0.01,0,0,Tiger
0.83,0.11,0.02,0.02,0.01,0,0.01,0,0,0,Tiger
0.21,0.22,0.25,0.13,0.12,0.03,0.03,0,0.01,0,Tiger
0.65,0.24,0.06,0.02,0.01,0,0.02,0,0,0,Tiger
0.4,0.24,0.12,0.12,0.06,0.03,0.02,0.01,0,0,Tiger
0.11,0.27,0.26,0.14,0.14,0.05,0.03,0,0,0,Tiger
0.67,0.12,0.11,0.05,0.01,0.01,0.01,0.02,0,0,Tiger
0.42,0.3,0.13,0.05,0.05,0.03,0,0.02,0,0,Tiger
0.8,0.08,0.04,0.04,0.01,0,0.02,0.01,0,0,Tiger
0.58,0.23,0.06,0.07,0.01,0.03,0,0,0.02,0,Tiger
0.74,0.18,0.06,0.02,0,0,0,0,0,0,Tiger
0.84,0.12,0.02,0.01,0,0,0,0,0.01,0,Tiger
0.15,0.18,0.12,0.08,0.13,0.22,0.07,0.05,0,0,Tiger
0.67,0.19,0.04,0.04,0.01,0.02,0.02,0.01,0,0,Tiger
0.45,0.25,0.17,0.05,0.03,0.02,0.02,0,0,0.01,Tiger
0.42,0.25,0.13,0.07,0.06,0.04,0.01,0.01,0.01,0,Tiger
0.25,0.33,0.12,0.03,0.1,0.05,0.09,0.03,0,0,Tiger
0.28,0.37,0.18,0.08,0.04,0.02,0,0,0.02,0.01,Tiger
0.56,0.25,0.11,0.05,0.02,0,0.01,0,0,0,Tiger
0.6,0.23,0.09,0.02,0.02,0.04,0,0,0,0,Tiger
0.43,0.24,0.11,0.09,0.06,0.05,0,0.01,0,0.01,Tiger
0.33,0.32,0.19,0.09,0.04,0.02,0,0.01,0,0,Tiger
0.51,0.26,0.08,0.09,0.02,0.01,0,0.02,0.01,0,Tiger
0.5,0.28,0.09,0.06,0.05,0.01,0,0,0.01,0,Tiger
0.4,0.26,0.15,0.13,0.03,0,0.02,0.01,0,0,Tiger
0.39,0.32,0.11,0.11,0.04,0.02,0,0.01,0,0,Tiger
0.53,0.29,0.07,0.02,0.06,0.01,0.01,0.01,0,0,Tiger
0.67,0.07,0.06,0.08,0.02,0.07,0.01,0.01,0.01,0,Tiger
0.37,0.27,0.13,0.12,0.05,0.04,0.02,0,0,0,Tiger
0.35,0.32,0.13,0.04,0.06,0.04,0.04,0.01,0,0.01,Tiger
0.4,0.3,0.12,0.05,0.04,0.03,0.01,0.04,0.01,0,Tiger
0.28,0.2,0.16,0.11,0.09,0.06,0.03,0.05,0.01,0.01,Tiger
0.55,0.25,0.07,0.05,0.06,0.02,0,0,0,0,Tiger
0.16,0.35,0.22,0.16,0.05,0.04,0.02,0,0,0,Tiger
0.33,0.42,0.05,0.05,0.04,0.06,0.01,0.02,0.02,0,Tiger
0.51,0.23,0.1,0.08,0.05,0.02,0,0.01,0,0,Tiger
0.52,0.36,0.08,0,0.01,0.01,0.01,0,0.01,0,Tiger
0.72,0.13,0.06,0.03,0.01,0.02,0.01,0.02,0,0,Tiger
0.41,0.27,0.18,0.07,0.03,0.03,0.01,0,0,0,Tiger
0.12,0.19,0.17,0.25,0.13,0.06,0.04,0.04,0,0,Tiger
0.31,0.24,0.19,0.14,0.11,0,0,0.01,0,0,Tiger
0.5,0.26,0.08,0.06,0.04,0,0,0.02,0.01,0.03,Tiger
0.28,0.49,0.04,0.02,0.03,0.06,0.03,0.05,0,0,Tiger
0.71,0.16,0.1,0.01,0.01,0.01,0,0,0,0,Tiger
0.21,0.26,0.27,0.07,0.04,0.01,0.06,0.03,0.05,0,Tiger
0.31,0.33,0.16,0.12,0.05,0.02,0.01,0,0,0,Tiger
0.27,0.3,0.26,0.09,0.05,0.01,0,0.01,0,0.01,Tiger
0.65,0.22,0.04,0.06,0.01,0.01,0,0,0,0.01,Tiger
0.62,0.31,0.02,0.01,0.03,0.01,0,0,0,0,Tiger
0.23,0.31,0.14,0.11,0.18,0.01,0.02,0,0,0,Tiger
0.58,0.2,0.08,0.06,0.04,0.02,0.02,0,0,0,Tiger
0.51,0.25,0.09,0.06,0.03,0.01,0.04,0,0,0.01,Tiger
0.48,0.21,0.11,0.14,0.03,0.03,0,0,0,0,Tiger
0.45,0.33,0.13,0.04,0.03,0.01,0.01,0,0,0,Tiger
0.34,0.21,0.16,0.15,0.06,0.04,0.03,0,0.01,0,Tiger
0.24,0.31,0.19,0.06,0.03,0.02,0.04,0.05,0.04,0.02,Tiger
0.21,0.36,0.17,0.1,0.07,0.06,0.03,0,0,0,Tiger
0.48,0.22,0.11,0.04,0.05,0.04,0.03,0.03,0,0,Tiger
0.74,0.06,0.1,0.05,0.03,0.01,0.01,0,0,0,Tiger
0.67,0.23,0.04,0.02,0.01,0,0.02,0,0.01,0,Tiger
0.46,0.38,0.07,0.02,0.04,0,0.01,0,0,0.02,Tiger
0.49,0.21,0.09,0.08,0.08,0.02,0.01,0.02,0,0,Tiger
0.43,0.27,0.11,0.11,0.05,0.01,0.02,0,0,0,Tiger
0.54,0.24,0.13,0.05,0.01,0.01,0,0.01,0.01,0,Tiger
0.46,0.3,0.13,0.04,0.03,0.01,0.02,0,0.01,0,Tiger
0.62,0.21,0.09,0.02,0.01,0.03,0.01,0.01,0,0,Tiger
0.43,0.32,0.17,0.07,0.01,0,0,0,0,0,Tiger
0.38,0.26,0.16,0.07,0.08,0.03,0.01,0.01,0,0,Tiger
0.25,0.23,0.2,0.11,0.09,0.07,0.05,0,0,0,Tiger
0.41,0.29,0.14,0.09,0.05,0.01,0,0.01,0,0,Tiger
0.3,0.4,0.17,0.02,0.07,0.03,0,0.01,0,0,Tiger
0.34,0.42,0.04,0.02,0.03,0.05,0.07,0.02,0.01,0,Tiger
0.48,0.27,0.12,0.07,0.01,0.03,0,0.01,0.01,0,Tiger
0.53,0.24,0.05,0.05,0.08,0.04,0,0,0,0.01,Tiger
0.34,0.31,0.15,0.04,0.05,0.08,0.02,0,0.01,0,Tiger
0.49,0.22,0.11,0.07,0.05,0.03,0,0.02,0.01,0,Tiger
0.69,0.14,0.03,0.04,0.05,0.03,0,0,0.02,0,Tiger
0.32,0.22,0.13,0.13,0.07,0.03,0.04,0.04,0.02,0,Tiger
0.33,0.39,0.1,0.1,0.05,0.02,0.01,0,0,0,Tiger
0.17,0.39,0.21,0.06,0.05,0.03,0.03,0.04,0.02,0,Tiger
0.57,0.23,0.12,0.04,0.03,0,0,0.01,0,0,Tiger
0.26,0.21,0.19,0.15,0.07,0.08,0.04,0,0,0,Tiger
0.23,0.19,0.13,0.11,0.2,0.06,0.03,0.02,0.02,0.01,Tiger
0.46,0.31,0.1,0.02,0,0.06,0.03,0.02,0,0,Tiger
0.51,0.14,0.08,0.07,0.07,0.02,0.04,0.02,0.02,0.03,Tiger
